 H  C Zn  N                             
   1.00000000000000     
    14.7145996094000004    0.0000000000000000    0.0000000000000000
    -4.9048613067000000   13.8730594039999993    0.0000000000000000
    -4.9048613067000000   -6.9365186080000001   12.0144282771000004
   H    C    Zn   N 
    60    48     6    24
Direct
  0.5843879618731230  0.1133756513425330  0.2325803254674537
  0.8807769429494686  0.3517985502459889  0.7673876873964776
  0.1191813358527180  0.8865991329273951  0.4710043681533757
  0.4155907777213436  0.6481662803155374  0.5289857696215687
  0.2325026148496288  0.5842693380351445  0.1133385778285794
  0.7673728566012415  0.8807678681813477  0.3518117878837306
  0.4709331431670213  0.1191567377316779  0.8866488266950102
  0.5289530337352443  0.4155536860419164  0.6481749808612848
  0.1133773014671844  0.2325681440557712  0.5843885923683435
  0.3518064101878355  0.7674133758009722  0.8808098397144430
  0.8866443820466491  0.4709220009489541  0.1191531177845586
  0.6481759380619651  0.5289703025879815  0.4155851676947357
  0.1133760500998882  0.5843824297552935  0.2325683849973684
  0.3518131152770951  0.8807873655010457  0.7674020756750175
  0.8866265061123798  0.1191665129933498  0.4709590660937683
  0.6482012745664726  0.4156447543875610  0.5290224800420104
  0.5842811609466915  0.2324980386833061  0.1133392727685813
  0.8807831690274449  0.7674044307565706  0.3517779475928971
  0.1191605177715001  0.4709385091319042  0.8866373674951312
  0.4156408137312817  0.5290117222005202  0.6482062367354237
  0.2325241581025070  0.1133445284577458  0.5843131372985240
  0.7674004932695873  0.3518013245801477  0.8807953268181166
  0.4709526132173475  0.8866199216053577  0.1191817645407837
  0.5290232555896381  0.6482027120687515  0.4156619700547798
  0.6563484785583231  0.0411173870272524  0.5462540721671219
  0.4944586696247368  0.1094669950644363  0.4537222761468166
  0.5462338794715541  0.6563508366544458  0.0411322080963765
  0.4535298331920554  0.4937740810874004  0.1081095197417013
  0.3847935769347616  0.3435827287111586  0.8898810070242251
  0.0411375458004248  0.5462409393691843  0.6563622602441497
  0.1082180602775738  0.4536864590210219  0.4937274520968716
  0.9599509134959794  0.6144839232326752  0.5062534832275067
  0.8898793038311682  0.3847704634409997  0.3436265573011252
  0.6557194853400268  0.5462079079288186  0.0406698601405390
  0.5462344631711501  0.0411240141494569  0.6563524852097080
  0.3847748544581488  0.8898658794864510  0.3436274372413301
  0.7728954257600107  0.0484007756783791  0.5346060778768967
  0.5138547554372404  0.2382893795195206  0.4653658102621606
  0.5345929289463927  0.7728923094910415  0.0484049108484965
  0.4652713449925373  0.5138548871063159  0.2382514931252224
  0.2755389115745240  0.2270417688556705  0.7616648459889424
  0.0484040781348004  0.5345952210347212  0.7728994941684628
  0.2382820193028704  0.4653821551750291  0.5139639928850909
  0.9514171143372532  0.7243070354856606  0.4860209685137777
  0.7616927627951677  0.2754953039506527  0.2270863096300234
  0.7728453815445264  0.5345971757471633  0.0483570896464610
  0.5345997154521053  0.0484015980967220  0.7729023122412171
  0.2754957881573459  0.7616864239425549  0.2270824552222125
  0.6542980053991043  0.9154160736348418  0.4762996484721961
  0.4369439353797904  0.1772527607351827  0.5203125991266926
  0.4757989813199379  0.6539282149442566  0.9153063152292842
  0.5199837224629543  0.4371460304115993  0.1773030811017210
  0.2596790637253462  0.3429803073499521  0.8227048910389756
  0.9154051077676435  0.4761565915946208  0.6542231624307767
  0.1829896308555061  0.5265403083277951  0.4431417058117678
  0.0834016096802032  0.7398053558270834  0.5568241782787420
  0.8219758840906539  0.2610916703244460  0.3456453037008753
  0.6529703464193656  0.4745749580432582  0.9147008583740418
  0.4762454131005552  0.9154195571636019  0.6542806327814151
  0.2611751941922917  0.8219289651122968  0.3457529987710526
  0.5879133338911064  0.0569908781014739  0.2649803613870534
  0.7919921289428192  0.3229152915643149  0.7349986010317332
  0.2079516642671464  0.9429714292704123  0.5308966134720917
  0.4120871415768172  0.6770273416241371  0.4690911708107429
  0.2649758820958416  0.5879084145765693  0.0569984334252040
  0.7349806363482092  0.7919916499461885  0.3229271615503710
  0.5309017323124930  0.2079460571951107  0.9429967929798458
  0.4690658494947327  0.4120508774572336  0.6770731947452775
  0.0569956582115267  0.2649701415643410  0.5879152844496132
  0.3229437609680926  0.7350367855452354  0.7920554656148726
  0.9429837515550369  0.5308825962486986  0.2079276278946008
  0.6770548123713257  0.4690717532374636  0.4120697421266361
  0.0569878702134187  0.5878992255608683  0.2649494713613142
  0.3229433544560015  0.7920270907606479  0.7350406588116238
  0.9429908540147415  0.2079542943446683  0.5309074136692197
  0.6770302718709038  0.4120887231958608  0.4690784623537450
  0.5879193811675834  0.2649844834029413  0.0570076846033000
  0.7919973656513479  0.7350058233909880  0.3229387412913865
  0.2079561190230601  0.5308978331743082  0.9429840746772378
  0.4120876557578516  0.4690746698494909  0.6770435690641226
  0.2649659988973441  0.0569813844309582  0.5879058884995400
  0.7350296932863842  0.3229354775776380  0.7920329212510944
  0.5309050681470397  0.9429818243145007  0.2079694881914155
  0.4690681891389211  0.6770476147342401  0.4120860612413225
  0.6338048076942312 -0.0001894254965535  0.3834426687049805
  0.6162404947413643  0.2502719947900038  0.6165236822968729
  0.3834393067126664 -0.0001730984692529  0.6338206024522476
  0.3660447782131090  0.7496164075950789  0.3661215235708972
  0.3834350608916693  0.6338228317205813 -0.0001484245273958
  0.6163520225288183  0.6162021121624925  0.2501284294474682
  0.6339025152327947  0.3835143276432166  0.0000037728658725
  0.3659707124541888  0.3662027251302917  0.7496798127795454
 -0.0001909154683957  0.3834222947590452  0.6338098827752713
  0.2505011675270647  0.6164615841847327  0.6168384991493980
 -0.0004037208197890  0.6336461297400843  0.3831053802788391
  0.7496173056435578  0.3660050480292563  0.3661648216991600
  0.6812492974840210  0.0003279306566987  0.4892666545564496
  0.5107844712818688  0.1917775284520727  0.5104280050475904
  0.4892421110511686  0.0003555544321222  0.6812586369740330
  0.3191061047455958  0.8079638438460379  0.3187048726860307
  0.4891908064325898  0.6812522036446557  0.0004090649626350
  0.5092832260067846  0.5108684140946196  0.1907997530115223
  0.6811034264817499  0.4891769109806209  0.0002810768021789
  0.3189752353334938  0.3185959823671574  0.8081194775975094
  0.0003664052188486  0.4892325709311651  0.6812546184809404
  0.1917705030825737  0.5105888109876591  0.5127675875527785
 -0.0021720709701105  0.6789860417870628  0.4871988595408106
  0.8079954674203532  0.3190832321715796  0.3187207095148612
  0.7487552068282851  0.2496349345287420  0.4997599120802954
  0.2498201078103696  0.7488473608584487  0.4998129859740126
  0.4995961791971121  0.7487934096014569  0.2496577364522810
  0.5000657330106277  0.2489961528313175  0.7501110318876714
  0.2496448090888182  0.4996273191730960  0.7487703631441390
  0.7509011746085117  0.5009446720408306  0.2510994542207274
  0.6528013350446986  0.0926318362616208  0.3750929608820885
  0.7175082785829797  0.2776940094316329  0.6248946410695941
  0.2824325443774726  0.9073024374398728  0.5601393944984225
  0.3471863340488624  0.7222775390542786  0.4398351192772912
  0.3750874654282174  0.6528015830770713  0.0926373504551907
  0.6248959186404440  0.7175201063726541  0.2776979834251896
  0.5601580692589402  0.2824435214753809  0.9073548787611024
  0.4398271695936465  0.3471694704356008  0.7222993967033742
  0.0926296602179061  0.3750853467307095  0.6528027303956969
  0.2777406026731356  0.6249243358524856  0.7176056273572800
  0.9073145309320680  0.5601307225522111  0.2823859885039723
  0.7222844295076061  0.4398263918782389  0.3471925084468721
  0.0926153542443841  0.6527917352061839  0.3750914868029552
  0.2776974408510199  0.7175111461444255  0.6249035199108427
  0.9073003645088329  0.2824337387162925  0.5601376289438992
  0.7222832421015456  0.3471806136080320  0.4398422125075009
  0.6528282348190079  0.3751159140618909  0.0926786386378572
  0.7175312014738996  0.6248743688323042  0.2776869145271876
  0.2824352848847725  0.5601370114177059  0.9073076904076161
  0.3471801202705297  0.4398440423805249  0.7222856982329738
  0.3750859166534732  0.0926185393522466  0.6528032916347302
  0.6248802561822395  0.2776950495993058  0.7175584822786735
  0.5601316875389220  0.9072979582963393  0.2824372780331176
  0.4398225118324262  0.7222752225179241  0.3471883280776284
 
  0.00000000E+00  0.00000000E+00  0.00000000E+00
  0.00000000E+00  0.00000000E+00  0.00000000E+00
  0.00000000E+00  0.00000000E+00  0.00000000E+00
  0.00000000E+00  0.00000000E+00  0.00000000E+00
  0.00000000E+00  0.00000000E+00  0.00000000E+00
  0.00000000E+00  0.00000000E+00  0.00000000E+00
  0.00000000E+00  0.00000000E+00  0.00000000E+00
  0.00000000E+00  0.00000000E+00  0.00000000E+00
  0.00000000E+00  0.00000000E+00  0.00000000E+00
  0.00000000E+00  0.00000000E+00  0.00000000E+00
  0.00000000E+00  0.00000000E+00  0.00000000E+00
  0.00000000E+00  0.00000000E+00  0.00000000E+00
  0.00000000E+00  0.00000000E+00  0.00000000E+00
  0.00000000E+00  0.00000000E+00  0.00000000E+00
  0.00000000E+00  0.00000000E+00  0.00000000E+00
  0.00000000E+00  0.00000000E+00  0.00000000E+00
  0.00000000E+00  0.00000000E+00  0.00000000E+00
  0.00000000E+00  0.00000000E+00  0.00000000E+00
  0.00000000E+00  0.00000000E+00  0.00000000E+00
  0.00000000E+00  0.00000000E+00  0.00000000E+00
  0.00000000E+00  0.00000000E+00  0.00000000E+00
  0.00000000E+00  0.00000000E+00  0.00000000E+00
  0.00000000E+00  0.00000000E+00  0.00000000E+00
  0.00000000E+00  0.00000000E+00  0.00000000E+00
  0.00000000E+00  0.00000000E+00  0.00000000E+00
  0.00000000E+00  0.00000000E+00  0.00000000E+00
  0.00000000E+00  0.00000000E+00  0.00000000E+00
  0.00000000E+00  0.00000000E+00  0.00000000E+00
  0.00000000E+00  0.00000000E+00  0.00000000E+00
  0.00000000E+00  0.00000000E+00  0.00000000E+00
  0.00000000E+00  0.00000000E+00  0.00000000E+00
  0.00000000E+00  0.00000000E+00  0.00000000E+00
  0.00000000E+00  0.00000000E+00  0.00000000E+00
  0.00000000E+00  0.00000000E+00  0.00000000E+00
  0.00000000E+00  0.00000000E+00  0.00000000E+00
  0.00000000E+00  0.00000000E+00  0.00000000E+00
  0.00000000E+00  0.00000000E+00  0.00000000E+00
  0.00000000E+00  0.00000000E+00  0.00000000E+00
  0.00000000E+00  0.00000000E+00  0.00000000E+00
  0.00000000E+00  0.00000000E+00  0.00000000E+00
  0.00000000E+00  0.00000000E+00  0.00000000E+00
  0.00000000E+00  0.00000000E+00  0.00000000E+00
  0.00000000E+00  0.00000000E+00  0.00000000E+00
  0.00000000E+00  0.00000000E+00  0.00000000E+00
  0.00000000E+00  0.00000000E+00  0.00000000E+00
  0.00000000E+00  0.00000000E+00  0.00000000E+00
  0.00000000E+00  0.00000000E+00  0.00000000E+00
  0.00000000E+00  0.00000000E+00  0.00000000E+00
  0.00000000E+00  0.00000000E+00  0.00000000E+00
  0.00000000E+00  0.00000000E+00  0.00000000E+00
  0.00000000E+00  0.00000000E+00  0.00000000E+00
  0.00000000E+00  0.00000000E+00  0.00000000E+00
  0.00000000E+00  0.00000000E+00  0.00000000E+00
  0.00000000E+00  0.00000000E+00  0.00000000E+00
  0.00000000E+00  0.00000000E+00  0.00000000E+00
  0.00000000E+00  0.00000000E+00  0.00000000E+00
  0.00000000E+00  0.00000000E+00  0.00000000E+00
  0.00000000E+00  0.00000000E+00  0.00000000E+00
  0.00000000E+00  0.00000000E+00  0.00000000E+00
  0.00000000E+00  0.00000000E+00  0.00000000E+00
  0.00000000E+00  0.00000000E+00  0.00000000E+00
  0.00000000E+00  0.00000000E+00  0.00000000E+00
  0.00000000E+00  0.00000000E+00  0.00000000E+00
  0.00000000E+00  0.00000000E+00  0.00000000E+00
  0.00000000E+00  0.00000000E+00  0.00000000E+00
  0.00000000E+00  0.00000000E+00  0.00000000E+00
  0.00000000E+00  0.00000000E+00  0.00000000E+00
  0.00000000E+00  0.00000000E+00  0.00000000E+00
  0.00000000E+00  0.00000000E+00  0.00000000E+00
  0.00000000E+00  0.00000000E+00  0.00000000E+00
  0.00000000E+00  0.00000000E+00  0.00000000E+00
  0.00000000E+00  0.00000000E+00  0.00000000E+00
  0.00000000E+00  0.00000000E+00  0.00000000E+00
  0.00000000E+00  0.00000000E+00  0.00000000E+00
  0.00000000E+00  0.00000000E+00  0.00000000E+00
  0.00000000E+00  0.00000000E+00  0.00000000E+00
  0.00000000E+00  0.00000000E+00  0.00000000E+00
  0.00000000E+00  0.00000000E+00  0.00000000E+00
  0.00000000E+00  0.00000000E+00  0.00000000E+00
  0.00000000E+00  0.00000000E+00  0.00000000E+00
  0.00000000E+00  0.00000000E+00  0.00000000E+00
  0.00000000E+00  0.00000000E+00  0.00000000E+00
  0.00000000E+00  0.00000000E+00  0.00000000E+00
  0.00000000E+00  0.00000000E+00  0.00000000E+00
  0.00000000E+00  0.00000000E+00  0.00000000E+00
  0.00000000E+00  0.00000000E+00  0.00000000E+00
  0.00000000E+00  0.00000000E+00  0.00000000E+00
  0.00000000E+00  0.00000000E+00  0.00000000E+00
  0.00000000E+00  0.00000000E+00  0.00000000E+00
  0.00000000E+00  0.00000000E+00  0.00000000E+00
  0.00000000E+00  0.00000000E+00  0.00000000E+00
  0.00000000E+00  0.00000000E+00  0.00000000E+00
  0.00000000E+00  0.00000000E+00  0.00000000E+00
  0.00000000E+00  0.00000000E+00  0.00000000E+00
  0.00000000E+00  0.00000000E+00  0.00000000E+00
  0.00000000E+00  0.00000000E+00  0.00000000E+00
  0.00000000E+00  0.00000000E+00  0.00000000E+00
  0.00000000E+00  0.00000000E+00  0.00000000E+00
  0.00000000E+00  0.00000000E+00  0.00000000E+00
  0.00000000E+00  0.00000000E+00  0.00000000E+00
  0.00000000E+00  0.00000000E+00  0.00000000E+00
  0.00000000E+00  0.00000000E+00  0.00000000E+00
  0.00000000E+00  0.00000000E+00  0.00000000E+00
  0.00000000E+00  0.00000000E+00  0.00000000E+00
  0.00000000E+00  0.00000000E+00  0.00000000E+00
  0.00000000E+00  0.00000000E+00  0.00000000E+00
  0.00000000E+00  0.00000000E+00  0.00000000E+00
  0.00000000E+00  0.00000000E+00  0.00000000E+00
  0.00000000E+00  0.00000000E+00  0.00000000E+00
  0.00000000E+00  0.00000000E+00  0.00000000E+00
  0.00000000E+00  0.00000000E+00  0.00000000E+00
  0.00000000E+00  0.00000000E+00  0.00000000E+00
  0.00000000E+00  0.00000000E+00  0.00000000E+00
  0.00000000E+00  0.00000000E+00  0.00000000E+00
  0.00000000E+00  0.00000000E+00  0.00000000E+00
  0.00000000E+00  0.00000000E+00  0.00000000E+00
  0.00000000E+00  0.00000000E+00  0.00000000E+00
  0.00000000E+00  0.00000000E+00  0.00000000E+00
  0.00000000E+00  0.00000000E+00  0.00000000E+00
  0.00000000E+00  0.00000000E+00  0.00000000E+00
  0.00000000E+00  0.00000000E+00  0.00000000E+00
  0.00000000E+00  0.00000000E+00  0.00000000E+00
  0.00000000E+00  0.00000000E+00  0.00000000E+00
  0.00000000E+00  0.00000000E+00  0.00000000E+00
  0.00000000E+00  0.00000000E+00  0.00000000E+00
  0.00000000E+00  0.00000000E+00  0.00000000E+00
  0.00000000E+00  0.00000000E+00  0.00000000E+00
  0.00000000E+00  0.00000000E+00  0.00000000E+00
  0.00000000E+00  0.00000000E+00  0.00000000E+00
  0.00000000E+00  0.00000000E+00  0.00000000E+00
  0.00000000E+00  0.00000000E+00  0.00000000E+00
  0.00000000E+00  0.00000000E+00  0.00000000E+00
  0.00000000E+00  0.00000000E+00  0.00000000E+00
  0.00000000E+00  0.00000000E+00  0.00000000E+00
  0.00000000E+00  0.00000000E+00  0.00000000E+00
  0.00000000E+00  0.00000000E+00  0.00000000E+00
  0.00000000E+00  0.00000000E+00  0.00000000E+00
  0.00000000E+00  0.00000000E+00  0.00000000E+00
