 H  C Co  N                             
   1.00000000000000     
    14.2486000061000002    0.0000000000000000    0.0000000000000000
    -4.2238055704999997   13.6081618389999992    0.0000000000000000
    -4.2238055704999997   -5.7336068234999997   12.3413054994000007
   H    C    Co   N 
    60    84     6    24
Direct
  0.5041088584960808  0.9156748393025604  0.0877473512420356
  0.4958911415039191  0.0843251526974387  0.9122526787579593
  0.0877473512420356  0.5041088584960808  0.9156748393025604
  0.9122526787579593  0.4958911415039191  0.0843251526974387
  0.9156748393025604  0.0877473512420356  0.5041088584960879
  0.0843251526974387  0.9122526787579593  0.4958911415039191
  0.7044802579197400  0.8746437382210970  0.4171249473580655
  0.2955197420802668  0.1253562327788969  0.5828750226419319
  0.4171249473580655  0.7044802579197329  0.8746437382210970
  0.5828750226419319  0.2955197420802668  0.1253562327788969
  0.8746437382210970  0.4171249473580655  0.7044802579197329
  0.1253562327788969  0.5828750226419319  0.2955197420802668
  0.6023104539078554  0.7401709055849972  0.4683185314036118
  0.3976895460921449  0.2598290944150098  0.5316814385963925
  0.4683185314036118  0.6023104539078554  0.7401709055849901
  0.5316814385963925  0.3976895460921449  0.2598290944150098
  0.7401709055849901  0.4683185314036118  0.6023104539078554
  0.2598290944150098  0.5316814385963925  0.3976895460921449
  0.7581238846517696  0.2245930240336078  0.2118606003382204
  0.2418761153482376  0.7754070049663909  0.7881393846617812
  0.2118606003382204  0.7581238846517696  0.2245930240336078
  0.7881393846617812  0.2418761153482305  0.7754070049663909
  0.2245930240336078  0.2118606003382204  0.7581238846517696
  0.7754070049663909  0.7881393846617812  0.2418761153482305
  0.6754609880171182  0.8293374013630865  0.0552135540595070
  0.3245390119828819  0.1706625986369139  0.9447864679404946
  0.0552135540595070  0.6754609880171182  0.8293374013630865
  0.9447864679404946  0.3245390119828819  0.1706625986369139
  0.8293374013630865  0.0552135540595070  0.6754609880171182
  0.1706625986369139  0.9447864679404946  0.3245390119828819
  0.6290546168316949  0.7366145432438310  0.8607180359990075
  0.3709453831683044  0.2633854867561714  0.1392819790009972
  0.8607180359990075  0.6290546168316949  0.7366145432438310
  0.1392819790009972  0.3709453831683044  0.2633854867561714
  0.7366145432438310  0.8607180359990075  0.6290546168316949
  0.2633854867561714  0.1392819790009972  0.3709453831683044
  0.9712308353865100  0.1853591920141236  0.3430277541043410
  0.0287691646134830  0.8146407779858743  0.6569722158956567
  0.3430277541043410  0.9712308353865100  0.1853591920141236
  0.6569722158956567  0.0287691646134830  0.8146407779858743
  0.1853591920141236  0.3430277541043410  0.9712308353865100
  0.8146407779858743  0.6569722158956567  0.0287691646134830
  0.1668211343696509  0.2600633321157016  0.3880460266602970
  0.8331788656303493  0.7399366828842957  0.6119539433396931
  0.3880460266603041  0.1668211343696509  0.2600633321157016
  0.6119539433396931  0.8331788656303493  0.7399366828842957
  0.2600633321157016  0.3880460266602970  0.1668211343696509
  0.7399366828842957  0.6119539433396931  0.8331788656303493
  0.6391260298658995  0.1946250297469860  0.3056757825877520
  0.3608739701341004  0.8053749552530155  0.6943241874122529
  0.3056757825877520  0.6391260298658995  0.1946250297469860
  0.6943241874122529  0.3608739701341004  0.8053749552530155
  0.1946250297469860  0.3056757825877520  0.6391260298658995
  0.8053749552530155  0.6943241874122529  0.3608739701341004
  0.6209363509429721  0.3599360673581428  0.4110274351092202
  0.3790636490570284  0.6400639026418545  0.5889725948907822
  0.4110274351092202  0.6209363509429721  0.3599360673581428
  0.5889725948907822  0.3790636490570284  0.6400639026418545
  0.3599360673581428  0.4110274351092202  0.6209363509429721
  0.6400639026418545  0.5889725948907822  0.3790636490570284
  0.5039472298365800  0.8778924650507964  0.1438363965810919
  0.4960527701634201  0.1221075349492035  0.8561636174189095
  0.1438363965810919  0.5039472298365800  0.8778924650507964
  0.8561636174189095  0.4960527701634201  0.1221075349492035
  0.8778924650507964  0.1438363965810919  0.5039472298365800
  0.1221075349492035  0.8561636174189095  0.4960527701634201
  0.5616832094002493  0.8356648453333311  0.2777931249136757
  0.4383167905997504  0.1643351546666690  0.7222069050863194
  0.2777931249136757  0.5616832094002493  0.8356648453333311
  0.7222069050863194  0.4383167905997504  0.1643351546666690
  0.8356648453333311  0.2777931249136757  0.5616832094002493
  0.1643351546666690  0.7222069050863194  0.4383167905997504
  0.6189360284256331  0.8242066367755638  0.3692096776304784
  0.3810639715743673  0.1757933782244345  0.6307902933695231
  0.3692096776304784  0.6189360284256331  0.8242066367755638
  0.6307902933695231  0.3810639715743673  0.1757933782244345
  0.8242066367755638  0.3692096776304784  0.6189360284256331
  0.1757933782244345  0.6307902933695231  0.3810639715743673
  0.5597639870552309  0.7476548672302652  0.3957414253320018
  0.4402360129447687  0.2523451027697326  0.6042585746679974
  0.3957414253320018  0.5597639870552309  0.7476548672302652
  0.6042585746679974  0.4402360129447687  0.2523451027697326
  0.7476548672302652  0.3957414253320018  0.5597639870552309
  0.2523451027697326  0.6042585746679974  0.4402360129447687
  0.7314810668260777  0.1491426078452558  0.1406591935665213
  0.2685189331739217  0.8508573771547467  0.8593407764334763
  0.1406591935665213  0.7314810668260777  0.1491426078452558
  0.8593407764334763  0.2685189331739217  0.8508573771547467
  0.1491426078452558  0.1406591935665213  0.7314810668260777
  0.8508573771547467  0.8593407764334763  0.2685189331739217
  0.6893813207528430  0.9826345430748283  0.0449362925050995
  0.3106186792471565  0.0173654369251701  0.9550637104948967
  0.0449362925050995  0.6893813207528501  0.9826345430748283
  0.9550637104948967  0.3106186792471494  0.0173654369251701
  0.9826345430748283  0.0449362925050995  0.6893813207528501
  0.0173654369251701  0.9550637104948967  0.3106186792471494
  0.6684317197852232  0.8736978747243389  0.0044243786534569
  0.3315682802147771  0.1263021102756567  0.9955756413465450
  0.0044243786534569  0.6684317197852232  0.8736978747243389
  0.9955756413465450  0.3315682802147771  0.1263021102756567
  0.8736978747243389  0.0044243786534569  0.6684317197852232
  0.1263021102756567  0.9955756413465450  0.3315682802147771
  0.6415514268930755  0.8215712964174924  0.8938719183270879
  0.3584485731069240  0.1784287035825073  0.1061280896729130
  0.8938719183270879  0.6415514268930755  0.8215712964174924
  0.1061280896729130  0.3584485731069240  0.1784287035825073
  0.8215712964174924  0.8938719183270879  0.6415514268930755
  0.1784287035825073  0.1061280896729130  0.3584485731069240
  0.9623600076240695  0.0231987709525253  0.3153530754214131
  0.0376399923759300  0.9768012570474697  0.6846468945785836
  0.3153530754214131  0.9623600076240695  0.0231987709525253
  0.6846468945785836  0.0376399923759300  0.9768012570474697
  0.0231987709525253  0.3153530754214131  0.9623600076240695
  0.9768012570474697  0.6846468945785836  0.0376399923759300
  0.0141204766126439  0.1326232478353913  0.3404946431301074
  0.9858795233873560  0.8673767521646161  0.6595053868698949
  0.3404946431301074  0.0141204766126439  0.1326232478353913
  0.6595053868698949  0.9858795233873560  0.8673767521646161
  0.1326232478353913  0.3404946431301074  0.0141204766126439
  0.8673767521646161  0.6595053868698949  0.9858795233873560
  0.1237644801818284  0.1737531258257850  0.3646063183955471
  0.8762355198181709  0.8262468741742149  0.6353936816044528
  0.3646063183955471  0.1237644801818284  0.1737531258257850
  0.6353936816044528  0.8762355198181709  0.8262468741742149
  0.1737531258257850  0.3646063183955471  0.1237644801818284
  0.8262468741742149  0.6353936816044528  0.8762355198181709
  0.7703481706562308  0.2168611544822033  0.4493392679819583
  0.2296518293437691  0.7831388455177969  0.5506607320180420
  0.4493392679819583  0.7703481706562308  0.2168611544822033
  0.5506607320180420  0.2296518293437691  0.7831388455177969
  0.2168611544822033  0.4493392679819583  0.7703481706562308
  0.7831388455177969  0.5506607320180420  0.2296518293437691
  0.6922523974371632  0.2440496418136562  0.3921840686968988
  0.3077476025628366  0.7559503431863468  0.6078159613031040
  0.3921840686968988  0.6922523974371632  0.2440496418136562
  0.6078159613031040  0.3077476025628366  0.7559503431863468
  0.2440496418136562  0.3921840686968988  0.6922523974371632
  0.7559503431863468  0.6078159613031040  0.3077476025628366
  0.6819829120549644  0.3351770801648493  0.4496252883507297
  0.3180170879450360  0.6648229198351508  0.5503747406492695
  0.4496252883507297  0.6819829120549644  0.3351770801648493
  0.5503747406492695  0.3180170879450360  0.6648229198351508
  0.3351770801648493  0.4496252883507297  0.6819829120549644
  0.6648229198351508  0.5503747406492695  0.3180170879450360
  0.7372475498654203  0.0132281724975518  0.2733085463943884
  0.2627524501345793  0.9867717975024530  0.7266914836056140
  0.2733085463943884  0.7372475498654203  0.0132281724975518
  0.7266914836056140  0.2627524501345793  0.9867717975024530
  0.0132281724975518  0.2733085463943884  0.7372475498654203
  0.9867717975024530  0.7266914836056140  0.2627524501345793
  0.5952763335264946  0.9027372201004705  0.2287987339638553
  0.4047236664735055  0.0972627948995270  0.7712012360361353
  0.2287987339638553  0.5952763335264946  0.9027372201004705
  0.7712012360361353  0.4047236664735055  0.0972627948995270
  0.9027372201004705  0.2287987339638553  0.5952763335264946
  0.0972627948995270  0.7712012360361353  0.4047236664735055
  0.7177701492963728  0.0542289081059405  0.1495173835375028
  0.2822298507036267  0.9457710768940687  0.8504826014624993
  0.1495173835375028  0.7177701492963728  0.0542289081059405
  0.8504826014624993  0.2822298507036267  0.9457710768940687
  0.0542289081059405  0.1495173835375028  0.7177701492963728
  0.9457710768940687  0.8504826014624993  0.2822298507036267
  0.8558125073886734  0.9599358477755418  0.2892140593420434
  0.1441874926113262  0.0400641632244630  0.7107859706579520
  0.2892140593420434  0.8558125073886734  0.9599358477755418
  0.7107859706579520  0.1441874926113262  0.0400641632244630
  0.9599358477755418  0.2892140593420434  0.8558125073886734
  0.0400641632244630  0.7107859706579520  0.1441874926113262
  0.8007764251891354  0.1322605702451991  0.4139098667187380
  0.1992235748108643  0.8677393997547984  0.5860901332812615
  0.4139098667187380  0.8007764251891354  0.1322605702451991
  0.5860901332812615  0.1992235748108643  0.8677393997547984
  0.1322605702451991  0.4139098667187380  0.8007764251891354
  0.8677393997547984  0.5860901332812615  0.1992235748108643
 
  0.00000000E+00  0.00000000E+00  0.00000000E+00
  0.00000000E+00  0.00000000E+00  0.00000000E+00
  0.00000000E+00  0.00000000E+00  0.00000000E+00
  0.00000000E+00  0.00000000E+00  0.00000000E+00
  0.00000000E+00  0.00000000E+00  0.00000000E+00
  0.00000000E+00  0.00000000E+00  0.00000000E+00
  0.00000000E+00  0.00000000E+00  0.00000000E+00
  0.00000000E+00  0.00000000E+00  0.00000000E+00
  0.00000000E+00  0.00000000E+00  0.00000000E+00
  0.00000000E+00  0.00000000E+00  0.00000000E+00
  0.00000000E+00  0.00000000E+00  0.00000000E+00
  0.00000000E+00  0.00000000E+00  0.00000000E+00
  0.00000000E+00  0.00000000E+00  0.00000000E+00
  0.00000000E+00  0.00000000E+00  0.00000000E+00
  0.00000000E+00  0.00000000E+00  0.00000000E+00
  0.00000000E+00  0.00000000E+00  0.00000000E+00
  0.00000000E+00  0.00000000E+00  0.00000000E+00
  0.00000000E+00  0.00000000E+00  0.00000000E+00
  0.00000000E+00  0.00000000E+00  0.00000000E+00
  0.00000000E+00  0.00000000E+00  0.00000000E+00
  0.00000000E+00  0.00000000E+00  0.00000000E+00
  0.00000000E+00  0.00000000E+00  0.00000000E+00
  0.00000000E+00  0.00000000E+00  0.00000000E+00
  0.00000000E+00  0.00000000E+00  0.00000000E+00
  0.00000000E+00  0.00000000E+00  0.00000000E+00
  0.00000000E+00  0.00000000E+00  0.00000000E+00
  0.00000000E+00  0.00000000E+00  0.00000000E+00
  0.00000000E+00  0.00000000E+00  0.00000000E+00
  0.00000000E+00  0.00000000E+00  0.00000000E+00
  0.00000000E+00  0.00000000E+00  0.00000000E+00
  0.00000000E+00  0.00000000E+00  0.00000000E+00
  0.00000000E+00  0.00000000E+00  0.00000000E+00
  0.00000000E+00  0.00000000E+00  0.00000000E+00
  0.00000000E+00  0.00000000E+00  0.00000000E+00
  0.00000000E+00  0.00000000E+00  0.00000000E+00
  0.00000000E+00  0.00000000E+00  0.00000000E+00
  0.00000000E+00  0.00000000E+00  0.00000000E+00
  0.00000000E+00  0.00000000E+00  0.00000000E+00
  0.00000000E+00  0.00000000E+00  0.00000000E+00
  0.00000000E+00  0.00000000E+00  0.00000000E+00
  0.00000000E+00  0.00000000E+00  0.00000000E+00
  0.00000000E+00  0.00000000E+00  0.00000000E+00
  0.00000000E+00  0.00000000E+00  0.00000000E+00
  0.00000000E+00  0.00000000E+00  0.00000000E+00
  0.00000000E+00  0.00000000E+00  0.00000000E+00
  0.00000000E+00  0.00000000E+00  0.00000000E+00
  0.00000000E+00  0.00000000E+00  0.00000000E+00
  0.00000000E+00  0.00000000E+00  0.00000000E+00
  0.00000000E+00  0.00000000E+00  0.00000000E+00
  0.00000000E+00  0.00000000E+00  0.00000000E+00
  0.00000000E+00  0.00000000E+00  0.00000000E+00
  0.00000000E+00  0.00000000E+00  0.00000000E+00
  0.00000000E+00  0.00000000E+00  0.00000000E+00
  0.00000000E+00  0.00000000E+00  0.00000000E+00
  0.00000000E+00  0.00000000E+00  0.00000000E+00
  0.00000000E+00  0.00000000E+00  0.00000000E+00
  0.00000000E+00  0.00000000E+00  0.00000000E+00
  0.00000000E+00  0.00000000E+00  0.00000000E+00
  0.00000000E+00  0.00000000E+00  0.00000000E+00
  0.00000000E+00  0.00000000E+00  0.00000000E+00
  0.00000000E+00  0.00000000E+00  0.00000000E+00
  0.00000000E+00  0.00000000E+00  0.00000000E+00
  0.00000000E+00  0.00000000E+00  0.00000000E+00
  0.00000000E+00  0.00000000E+00  0.00000000E+00
  0.00000000E+00  0.00000000E+00  0.00000000E+00
  0.00000000E+00  0.00000000E+00  0.00000000E+00
  0.00000000E+00  0.00000000E+00  0.00000000E+00
  0.00000000E+00  0.00000000E+00  0.00000000E+00
  0.00000000E+00  0.00000000E+00  0.00000000E+00
  0.00000000E+00  0.00000000E+00  0.00000000E+00
  0.00000000E+00  0.00000000E+00  0.00000000E+00
  0.00000000E+00  0.00000000E+00  0.00000000E+00
  0.00000000E+00  0.00000000E+00  0.00000000E+00
  0.00000000E+00  0.00000000E+00  0.00000000E+00
  0.00000000E+00  0.00000000E+00  0.00000000E+00
  0.00000000E+00  0.00000000E+00  0.00000000E+00
  0.00000000E+00  0.00000000E+00  0.00000000E+00
  0.00000000E+00  0.00000000E+00  0.00000000E+00
  0.00000000E+00  0.00000000E+00  0.00000000E+00
  0.00000000E+00  0.00000000E+00  0.00000000E+00
  0.00000000E+00  0.00000000E+00  0.00000000E+00
  0.00000000E+00  0.00000000E+00  0.00000000E+00
  0.00000000E+00  0.00000000E+00  0.00000000E+00
  0.00000000E+00  0.00000000E+00  0.00000000E+00
  0.00000000E+00  0.00000000E+00  0.00000000E+00
  0.00000000E+00  0.00000000E+00  0.00000000E+00
  0.00000000E+00  0.00000000E+00  0.00000000E+00
  0.00000000E+00  0.00000000E+00  0.00000000E+00
  0.00000000E+00  0.00000000E+00  0.00000000E+00
  0.00000000E+00  0.00000000E+00  0.00000000E+00
  0.00000000E+00  0.00000000E+00  0.00000000E+00
  0.00000000E+00  0.00000000E+00  0.00000000E+00
  0.00000000E+00  0.00000000E+00  0.00000000E+00
  0.00000000E+00  0.00000000E+00  0.00000000E+00
  0.00000000E+00  0.00000000E+00  0.00000000E+00
  0.00000000E+00  0.00000000E+00  0.00000000E+00
  0.00000000E+00  0.00000000E+00  0.00000000E+00
  0.00000000E+00  0.00000000E+00  0.00000000E+00
  0.00000000E+00  0.00000000E+00  0.00000000E+00
  0.00000000E+00  0.00000000E+00  0.00000000E+00
  0.00000000E+00  0.00000000E+00  0.00000000E+00
  0.00000000E+00  0.00000000E+00  0.00000000E+00
  0.00000000E+00  0.00000000E+00  0.00000000E+00
  0.00000000E+00  0.00000000E+00  0.00000000E+00
  0.00000000E+00  0.00000000E+00  0.00000000E+00
  0.00000000E+00  0.00000000E+00  0.00000000E+00
  0.00000000E+00  0.00000000E+00  0.00000000E+00
  0.00000000E+00  0.00000000E+00  0.00000000E+00
  0.00000000E+00  0.00000000E+00  0.00000000E+00
  0.00000000E+00  0.00000000E+00  0.00000000E+00
  0.00000000E+00  0.00000000E+00  0.00000000E+00
  0.00000000E+00  0.00000000E+00  0.00000000E+00
  0.00000000E+00  0.00000000E+00  0.00000000E+00
  0.00000000E+00  0.00000000E+00  0.00000000E+00
  0.00000000E+00  0.00000000E+00  0.00000000E+00
  0.00000000E+00  0.00000000E+00  0.00000000E+00
  0.00000000E+00  0.00000000E+00  0.00000000E+00
  0.00000000E+00  0.00000000E+00  0.00000000E+00
  0.00000000E+00  0.00000000E+00  0.00000000E+00
  0.00000000E+00  0.00000000E+00  0.00000000E+00
  0.00000000E+00  0.00000000E+00  0.00000000E+00
  0.00000000E+00  0.00000000E+00  0.00000000E+00
  0.00000000E+00  0.00000000E+00  0.00000000E+00
  0.00000000E+00  0.00000000E+00  0.00000000E+00
  0.00000000E+00  0.00000000E+00  0.00000000E+00
  0.00000000E+00  0.00000000E+00  0.00000000E+00
  0.00000000E+00  0.00000000E+00  0.00000000E+00
  0.00000000E+00  0.00000000E+00  0.00000000E+00
  0.00000000E+00  0.00000000E+00  0.00000000E+00
  0.00000000E+00  0.00000000E+00  0.00000000E+00
  0.00000000E+00  0.00000000E+00  0.00000000E+00
  0.00000000E+00  0.00000000E+00  0.00000000E+00
  0.00000000E+00  0.00000000E+00  0.00000000E+00
  0.00000000E+00  0.00000000E+00  0.00000000E+00
  0.00000000E+00  0.00000000E+00  0.00000000E+00
  0.00000000E+00  0.00000000E+00  0.00000000E+00
  0.00000000E+00  0.00000000E+00  0.00000000E+00
  0.00000000E+00  0.00000000E+00  0.00000000E+00
  0.00000000E+00  0.00000000E+00  0.00000000E+00
  0.00000000E+00  0.00000000E+00  0.00000000E+00
  0.00000000E+00  0.00000000E+00  0.00000000E+00
  0.00000000E+00  0.00000000E+00  0.00000000E+00
  0.00000000E+00  0.00000000E+00  0.00000000E+00
  0.00000000E+00  0.00000000E+00  0.00000000E+00
  0.00000000E+00  0.00000000E+00  0.00000000E+00
  0.00000000E+00  0.00000000E+00  0.00000000E+00
  0.00000000E+00  0.00000000E+00  0.00000000E+00
  0.00000000E+00  0.00000000E+00  0.00000000E+00
  0.00000000E+00  0.00000000E+00  0.00000000E+00
  0.00000000E+00  0.00000000E+00  0.00000000E+00
  0.00000000E+00  0.00000000E+00  0.00000000E+00
  0.00000000E+00  0.00000000E+00  0.00000000E+00
  0.00000000E+00  0.00000000E+00  0.00000000E+00
  0.00000000E+00  0.00000000E+00  0.00000000E+00
  0.00000000E+00  0.00000000E+00  0.00000000E+00
  0.00000000E+00  0.00000000E+00  0.00000000E+00
  0.00000000E+00  0.00000000E+00  0.00000000E+00
  0.00000000E+00  0.00000000E+00  0.00000000E+00
  0.00000000E+00  0.00000000E+00  0.00000000E+00
  0.00000000E+00  0.00000000E+00  0.00000000E+00
  0.00000000E+00  0.00000000E+00  0.00000000E+00
  0.00000000E+00  0.00000000E+00  0.00000000E+00
  0.00000000E+00  0.00000000E+00  0.00000000E+00
  0.00000000E+00  0.00000000E+00  0.00000000E+00
  0.00000000E+00  0.00000000E+00  0.00000000E+00
  0.00000000E+00  0.00000000E+00  0.00000000E+00
  0.00000000E+00  0.00000000E+00  0.00000000E+00
  0.00000000E+00  0.00000000E+00  0.00000000E+00
  0.00000000E+00  0.00000000E+00  0.00000000E+00
  0.00000000E+00  0.00000000E+00  0.00000000E+00
  0.00000000E+00  0.00000000E+00  0.00000000E+00
  0.00000000E+00  0.00000000E+00  0.00000000E+00
  0.00000000E+00  0.00000000E+00  0.00000000E+00
  0.00000000E+00  0.00000000E+00  0.00000000E+00
