 H  C Zn  N                             
   1.00000000000000     
    14.2749004363999994    0.0000000000000000    0.0000000000000000
    -4.2364088447999997   13.6317872111000007    0.0000000000000000
    -4.2364088447999997   -5.7528387989000001   12.3584169020000001
   H    C    Zn   N 
    60    84     6    24
Direct
  0.9173476845696528  0.5040201499216946  0.0928298375574970
  0.0826523154303468  0.4959798200783099  0.9071701544425023
  0.0928298375574970  0.9173476845696528  0.5040201499216947
  0.9071701544425023  0.0826523154303468  0.4959798200783099
  0.5040201499216947  0.0928298375574970  0.9173476845696528
  0.4959798200783099  0.9071701544425023  0.0826523154303468
  0.8792753471190257  0.7076060914074651  0.4173421531563936
  0.1207246528809747  0.2923939085925354  0.5826578468436062
  0.4173421531563935  0.8792753471190257  0.7076060914074651
  0.5826578468436062  0.1207246528809747  0.2923939085925353
  0.7076060914074651  0.4173421531563935  0.8792753471190257
  0.2923939085925353  0.5826578468436062  0.1207246528809747
  0.7409042669274971  0.6103456572932715  0.4682478321375316
  0.2590957330725022  0.3896543427067283  0.5317521678624680
  0.4682478321375316  0.7409042669274971  0.6103456572932716
  0.5317521678624682  0.2590957330725022  0.3896543427067282
  0.6103456572932716  0.4682478321375316  0.7409042669274971
  0.3896543427067283  0.5317521678624682  0.2590957330725022
  0.6220167553101383  0.4124303790583154  0.3602771673991381
  0.3779832446898622  0.5875696209416846  0.6397228626008571
  0.3602771673991381  0.6220167553101383  0.4124303790583154
  0.6397228626008571  0.3779832446898622  0.5875696209416846
  0.4124303790583154  0.3602771673991381  0.6220167553101383
  0.5875696209416846  0.6397228626008571  0.3779832446898622
  0.1946817262480532  0.6384424353388457  0.3100659009084357
  0.8053182737519469  0.3615575946611481  0.6899340690915611
  0.3100659009084357  0.1946817262480532  0.6384424353388457
  0.6899340690915611  0.8053182737519469  0.3615575946611481
  0.6384424353388457  0.3100659009084357  0.1946817262480532
  0.3615575946611481  0.6899340690915610  0.8053182737519469
  0.7880971635112256  0.7780072015856485  0.2449997735333620
  0.2119028364887742  0.2219928134143492  0.7550002564666407
  0.2449997735333620  0.7880971635112258  0.7780072015856484
  0.7550002564666407  0.2119028364887742  0.2219928134143492
  0.7780072015856484  0.2449997735333620  0.7880971635112256
  0.2219928134143492  0.7550002564666407  0.2119028364887742
  0.1851744159282703  0.9719719361597711  0.3425237950163528
  0.8148255840717299  0.0280280488402316  0.6574762349836499
  0.3425237950163528  0.1851744159282703  0.9719719361597711
  0.6574762349836499  0.8148255840717300  0.0280280488402316
  0.9719719361597711  0.3425237950163527  0.1851744159282703
  0.0280280488402316  0.6574762349836498  0.8148255840717301
  0.8324361905598773  0.6764915257778481  0.0557248712166280
  0.1675638094401230  0.3235084442221497  0.9442751097833739
  0.0557248712166280  0.8324361905598773  0.6764915257778481
  0.9442751097833739  0.1675638094401230  0.3235084442221497
  0.6764915257778481  0.0557248712166280  0.8324361905598773
  0.3235084442221497  0.9442751097833739  0.1675638094401230
  0.2586762242384366  0.1628546043078619  0.3799241802462536
  0.7413237757615633  0.8371453956921376  0.6200757907537471
  0.3799241802462536  0.2586762242384366  0.1628546043078619
  0.6200757907537471  0.7413237757615633  0.8371453956921376
  0.1628546043078619  0.3799241802462536  0.2586762242384366
  0.8371453956921376  0.6200757907537471  0.7413237757615632
  0.7366673523843930  0.6291771162074129  0.8605180689958211
  0.2633326476156064  0.3708229137925896  0.1394819460041767
  0.8605180689958211  0.7366673523843930  0.6291771162074129
  0.1394819460041767  0.2633326476156064  0.3708229137925896
  0.6291771162074129  0.8605180689958211  0.7366673523843930
  0.3708229137925896  0.1394819460041767  0.2633326476156064
  0.8790714492074123  0.5048487250971452  0.1486404820589296
  0.1209285507925874  0.4951512749028547  0.8513595479410730
  0.1486404820589296  0.8790714492074123  0.5048487250971452
  0.8513595479410730  0.1209285507925874  0.4951512749028547
  0.5048487250971452  0.1486404820589296  0.8790714492074123
  0.4951512749028547  0.8513595479410730  0.1209285507925874
  0.8371935882079370  0.5630573294028222  0.2803916724761931
  0.1628064117920630  0.4369426705971778  0.7196083275238074
  0.2803916724761931  0.8371935882079370  0.5630573294028222
  0.7196083275238074  0.1628064117920630  0.4369426705971778
  0.5630573294028222  0.2803916724761931  0.8371935882079370
  0.4369426705971779  0.7196083275238074  0.1628064117920630
  0.8258434153916711  0.6208050667300786  0.3705410038577862
  0.1741565846083292  0.3791949332699208  0.6294589671422144
  0.3705410038577862  0.8258434153916711  0.6208050667300786
  0.6294589671422144  0.1741565846083292  0.3791949332699208
  0.6208050667300786  0.3705410038577862  0.8258434153916711
  0.3791949332699208  0.6294589671422144  0.1741565846083292
  0.7498026492432776  0.5647692444645540  0.3980667854721617
  0.2501973507567223  0.4352307855354487  0.6019331845278355
  0.3980667854721617  0.7498026492432776  0.5647692444645540
  0.6019331845278355  0.2501973507567223  0.4352307855354487
  0.5647692444645540  0.3980667854721617  0.7498026492432776
  0.4352307855354487  0.6019331845278355  0.2501973507567223
  0.6821181526206019  0.4535778355857092  0.3358953340955426
  0.3178818473793984  0.5464221644142898  0.6641046659044574
  0.3358953340955426  0.6821181526206019  0.4535778355857092
  0.6641046659044574  0.3178818473793984  0.5464221644142898
  0.4535778355857092  0.3358953340955426  0.6821181526206019
  0.5464221644142898  0.6641046659044574  0.3178818473793984
  0.2176619431546196  0.7696057679866082  0.4516115795198574
  0.7823380568453802  0.2303942020133898  0.5483883904801397
  0.4516115795198574  0.2176619431546196  0.7696057679866082
  0.5483883904801397  0.7823380568453802  0.2303942020133898
  0.7696057679866082  0.4516115795198574  0.2176619431546196
  0.2303942020133898  0.5483883904801397  0.7823380568453802
  0.2436163177241058  0.6901945638582534  0.3959239865511551
  0.7563836822758939  0.3098054361417469  0.6040760134488444
  0.3959239865511551  0.2436163177241058  0.6901945638582534
  0.6040760134488444  0.7563836822758939  0.3098054361417469
  0.6901945638582534  0.3959239865511551  0.2436163177241058
  0.3098054361417469  0.6040760134488444  0.7563836822758939
  0.8603072146785828  0.8513363864101137  0.2680981862831018
  0.1396927853214171  0.1486636135898870  0.7319018137168980
  0.2680981862831018  0.8603072146785828  0.8513363864101138
  0.7319018137168980  0.1396927853214171  0.1486636135898870
  0.8513363864101138  0.2680981862831018  0.8603072146785828
  0.1486636135898870  0.7319018137168980  0.1396927853214171
  0.0225112863680454  0.9609892559371328  0.3108093515176154
  0.9774887136319553  0.0390107480628601  0.6891906484823841
  0.3108093515176154  0.0225112863680454  0.9609892559371328
  0.6891906484823841  0.9774887136319553  0.0390107480628601
  0.9609892559371399  0.3108093515176154  0.0225112863680454
  0.0390107480628601  0.6891906484823841  0.9774887136319553
  0.1323957031362614  0.0141192261371244  0.3400308664190181
  0.8676042968637385  0.9858807588628705  0.6599691335809816
  0.3400308664190181  0.1323957031362614  0.0141192261371244
  0.6599691335809816  0.8676042968637385  0.9858807588628705
  0.0141192261371244  0.3400308664190181  0.1323957031362614
  0.9858807588628705  0.6599691335809816  0.8676042968637385
  0.9839056777364654  0.6944611002594594  0.0439217524516384
  0.0160943222635355  0.3055388997405406  0.9560782405483650
  0.0439217524516383  0.9839056777364654  0.6944611002594594
  0.9560782405483650  0.0160943222635355  0.3055388997405406
  0.6944611002594594  0.0439217524516384  0.9839056777364654
  0.3055388997405406  0.9560782405483650  0.0160943222635355
  0.8747518308609876  0.6733268858992080  0.0026926709376883
  0.1252481691390125  0.3266730841007886 -0.0026926939376866
  0.0026926709376883  0.8747518308609876  0.6733268858992080
 -0.0026926939376866  0.1252481691390125  0.3266730841007886
  0.6733268858992080  0.0026926709376883  0.8747518308609876
  0.3266730841007886 -0.0026926939376866  0.1252481691390125
  0.1732486263176290  0.1229414836886579  0.3610844525481702
  0.8267513736823713  0.8770585163113421  0.6389155474518290
  0.3610844525481702  0.1732486263176290  0.1229414836886579
  0.6389155474518290  0.8267513736823713  0.8770585163113421
  0.1229414836886579  0.3610844525481703  0.1732486263176290
  0.8770585163113421  0.6389155474518290  0.8267513736823713
  0.8220925674060496  0.6444909544632538  0.8931038164187985
  0.1779074325939503  0.3555090455367469  0.1068961755812006
  0.8931038164187985  0.8220925674060496  0.6444909544632538
  0.1068961755812006  0.1779074325939503  0.3555090455367398
  0.6444909544632538  0.8931038164187985  0.8220925674060496
  0.3555090455367469  0.1068961755812006  0.1779074325939503
  0.0142379430266311  0.7422933463682522  0.2723020063863479
  0.9857620569733687  0.2577066536317483  0.7276980236136471
  0.2723020063863479  0.0142379430266311  0.7422933463682522
  0.7276980236136542  0.9857620569733687  0.2577066536317483
  0.7422933463682522  0.2723020063863479  0.0142379430266311
  0.2577066536317483  0.7276980236136471  0.9857620569733687
  0.9046471926099853  0.5965197038011432  0.2337151745320532
  0.0953528073900158  0.4034803261988585  0.7662848254679470
  0.2337151745320532  0.9046471926099853  0.5965197038011432
  0.7662848254679470  0.0953528073900158  0.4034803261988585
  0.5965197038011432  0.2337151745320532  0.9046471926099853
  0.4034803261988585  0.7662848254679470  0.0953528073900158
  0.0553751236330961  0.7220263905383436  0.1479237376478063
  0.9446248763669033  0.2779736094616559  0.8520762483521925
  0.1479237376478063  0.0553751236330961  0.7220263905383436
  0.8520762483521925  0.9446248763669033  0.2779736094616559
  0.7220263905383436  0.1479237376478063  0.0553751236330961
  0.2779736094616559  0.8520762483521925  0.9446248763669033
  0.1341230494892226  0.7983661860521269  0.4156887467356960
  0.8658769505107767  0.2016338289478778  0.5843112832643074
  0.4156887467356960  0.1341230494892226  0.7983661860521269
  0.5843112832643074  0.8658769505107767  0.2016338289478778
  0.7983661860521269  0.4156887467356960  0.1341230494892226
  0.2016338289478778  0.5843112832643074  0.8658769505107767
  0.9585254343958030  0.8545758892816107  0.2846294871404219
  0.0414745656041978  0.1454241107183891  0.7153705418595848
  0.2846294871404219  0.9585254343958028  0.8545758892816107
  0.7153705418595848  0.0414745656041978  0.1454241107183891
  0.8545758892816107  0.2846294871404147  0.9585254343958030
  0.1454241107183891  0.7153705418595848  0.0414745656041978
 
  0.00000000E+00  0.00000000E+00  0.00000000E+00
  0.00000000E+00  0.00000000E+00  0.00000000E+00
  0.00000000E+00  0.00000000E+00  0.00000000E+00
  0.00000000E+00  0.00000000E+00  0.00000000E+00
  0.00000000E+00  0.00000000E+00  0.00000000E+00
  0.00000000E+00  0.00000000E+00  0.00000000E+00
  0.00000000E+00  0.00000000E+00  0.00000000E+00
  0.00000000E+00  0.00000000E+00  0.00000000E+00
  0.00000000E+00  0.00000000E+00  0.00000000E+00
  0.00000000E+00  0.00000000E+00  0.00000000E+00
  0.00000000E+00  0.00000000E+00  0.00000000E+00
  0.00000000E+00  0.00000000E+00  0.00000000E+00
  0.00000000E+00  0.00000000E+00  0.00000000E+00
  0.00000000E+00  0.00000000E+00  0.00000000E+00
  0.00000000E+00  0.00000000E+00  0.00000000E+00
  0.00000000E+00  0.00000000E+00  0.00000000E+00
  0.00000000E+00  0.00000000E+00  0.00000000E+00
  0.00000000E+00  0.00000000E+00  0.00000000E+00
  0.00000000E+00  0.00000000E+00  0.00000000E+00
  0.00000000E+00  0.00000000E+00  0.00000000E+00
  0.00000000E+00  0.00000000E+00  0.00000000E+00
  0.00000000E+00  0.00000000E+00  0.00000000E+00
  0.00000000E+00  0.00000000E+00  0.00000000E+00
  0.00000000E+00  0.00000000E+00  0.00000000E+00
  0.00000000E+00  0.00000000E+00  0.00000000E+00
  0.00000000E+00  0.00000000E+00  0.00000000E+00
  0.00000000E+00  0.00000000E+00  0.00000000E+00
  0.00000000E+00  0.00000000E+00  0.00000000E+00
  0.00000000E+00  0.00000000E+00  0.00000000E+00
  0.00000000E+00  0.00000000E+00  0.00000000E+00
  0.00000000E+00  0.00000000E+00  0.00000000E+00
  0.00000000E+00  0.00000000E+00  0.00000000E+00
  0.00000000E+00  0.00000000E+00  0.00000000E+00
  0.00000000E+00  0.00000000E+00  0.00000000E+00
  0.00000000E+00  0.00000000E+00  0.00000000E+00
  0.00000000E+00  0.00000000E+00  0.00000000E+00
  0.00000000E+00  0.00000000E+00  0.00000000E+00
  0.00000000E+00  0.00000000E+00  0.00000000E+00
  0.00000000E+00  0.00000000E+00  0.00000000E+00
  0.00000000E+00  0.00000000E+00  0.00000000E+00
  0.00000000E+00  0.00000000E+00  0.00000000E+00
  0.00000000E+00  0.00000000E+00  0.00000000E+00
  0.00000000E+00  0.00000000E+00  0.00000000E+00
  0.00000000E+00  0.00000000E+00  0.00000000E+00
  0.00000000E+00  0.00000000E+00  0.00000000E+00
  0.00000000E+00  0.00000000E+00  0.00000000E+00
  0.00000000E+00  0.00000000E+00  0.00000000E+00
  0.00000000E+00  0.00000000E+00  0.00000000E+00
  0.00000000E+00  0.00000000E+00  0.00000000E+00
  0.00000000E+00  0.00000000E+00  0.00000000E+00
  0.00000000E+00  0.00000000E+00  0.00000000E+00
  0.00000000E+00  0.00000000E+00  0.00000000E+00
  0.00000000E+00  0.00000000E+00  0.00000000E+00
  0.00000000E+00  0.00000000E+00  0.00000000E+00
  0.00000000E+00  0.00000000E+00  0.00000000E+00
  0.00000000E+00  0.00000000E+00  0.00000000E+00
  0.00000000E+00  0.00000000E+00  0.00000000E+00
  0.00000000E+00  0.00000000E+00  0.00000000E+00
  0.00000000E+00  0.00000000E+00  0.00000000E+00
  0.00000000E+00  0.00000000E+00  0.00000000E+00
  0.00000000E+00  0.00000000E+00  0.00000000E+00
  0.00000000E+00  0.00000000E+00  0.00000000E+00
  0.00000000E+00  0.00000000E+00  0.00000000E+00
  0.00000000E+00  0.00000000E+00  0.00000000E+00
  0.00000000E+00  0.00000000E+00  0.00000000E+00
  0.00000000E+00  0.00000000E+00  0.00000000E+00
  0.00000000E+00  0.00000000E+00  0.00000000E+00
  0.00000000E+00  0.00000000E+00  0.00000000E+00
  0.00000000E+00  0.00000000E+00  0.00000000E+00
  0.00000000E+00  0.00000000E+00  0.00000000E+00
  0.00000000E+00  0.00000000E+00  0.00000000E+00
  0.00000000E+00  0.00000000E+00  0.00000000E+00
  0.00000000E+00  0.00000000E+00  0.00000000E+00
  0.00000000E+00  0.00000000E+00  0.00000000E+00
  0.00000000E+00  0.00000000E+00  0.00000000E+00
  0.00000000E+00  0.00000000E+00  0.00000000E+00
  0.00000000E+00  0.00000000E+00  0.00000000E+00
  0.00000000E+00  0.00000000E+00  0.00000000E+00
  0.00000000E+00  0.00000000E+00  0.00000000E+00
  0.00000000E+00  0.00000000E+00  0.00000000E+00
  0.00000000E+00  0.00000000E+00  0.00000000E+00
  0.00000000E+00  0.00000000E+00  0.00000000E+00
  0.00000000E+00  0.00000000E+00  0.00000000E+00
  0.00000000E+00  0.00000000E+00  0.00000000E+00
  0.00000000E+00  0.00000000E+00  0.00000000E+00
  0.00000000E+00  0.00000000E+00  0.00000000E+00
  0.00000000E+00  0.00000000E+00  0.00000000E+00
  0.00000000E+00  0.00000000E+00  0.00000000E+00
  0.00000000E+00  0.00000000E+00  0.00000000E+00
  0.00000000E+00  0.00000000E+00  0.00000000E+00
  0.00000000E+00  0.00000000E+00  0.00000000E+00
  0.00000000E+00  0.00000000E+00  0.00000000E+00
  0.00000000E+00  0.00000000E+00  0.00000000E+00
  0.00000000E+00  0.00000000E+00  0.00000000E+00
  0.00000000E+00  0.00000000E+00  0.00000000E+00
  0.00000000E+00  0.00000000E+00  0.00000000E+00
  0.00000000E+00  0.00000000E+00  0.00000000E+00
  0.00000000E+00  0.00000000E+00  0.00000000E+00
  0.00000000E+00  0.00000000E+00  0.00000000E+00
  0.00000000E+00  0.00000000E+00  0.00000000E+00
  0.00000000E+00  0.00000000E+00  0.00000000E+00
  0.00000000E+00  0.00000000E+00  0.00000000E+00
  0.00000000E+00  0.00000000E+00  0.00000000E+00
  0.00000000E+00  0.00000000E+00  0.00000000E+00
  0.00000000E+00  0.00000000E+00  0.00000000E+00
  0.00000000E+00  0.00000000E+00  0.00000000E+00
  0.00000000E+00  0.00000000E+00  0.00000000E+00
  0.00000000E+00  0.00000000E+00  0.00000000E+00
  0.00000000E+00  0.00000000E+00  0.00000000E+00
  0.00000000E+00  0.00000000E+00  0.00000000E+00
  0.00000000E+00  0.00000000E+00  0.00000000E+00
  0.00000000E+00  0.00000000E+00  0.00000000E+00
  0.00000000E+00  0.00000000E+00  0.00000000E+00
  0.00000000E+00  0.00000000E+00  0.00000000E+00
  0.00000000E+00  0.00000000E+00  0.00000000E+00
  0.00000000E+00  0.00000000E+00  0.00000000E+00
  0.00000000E+00  0.00000000E+00  0.00000000E+00
  0.00000000E+00  0.00000000E+00  0.00000000E+00
  0.00000000E+00  0.00000000E+00  0.00000000E+00
  0.00000000E+00  0.00000000E+00  0.00000000E+00
  0.00000000E+00  0.00000000E+00  0.00000000E+00
  0.00000000E+00  0.00000000E+00  0.00000000E+00
  0.00000000E+00  0.00000000E+00  0.00000000E+00
  0.00000000E+00  0.00000000E+00  0.00000000E+00
  0.00000000E+00  0.00000000E+00  0.00000000E+00
  0.00000000E+00  0.00000000E+00  0.00000000E+00
  0.00000000E+00  0.00000000E+00  0.00000000E+00
  0.00000000E+00  0.00000000E+00  0.00000000E+00
  0.00000000E+00  0.00000000E+00  0.00000000E+00
  0.00000000E+00  0.00000000E+00  0.00000000E+00
  0.00000000E+00  0.00000000E+00  0.00000000E+00
  0.00000000E+00  0.00000000E+00  0.00000000E+00
  0.00000000E+00  0.00000000E+00  0.00000000E+00
  0.00000000E+00  0.00000000E+00  0.00000000E+00
  0.00000000E+00  0.00000000E+00  0.00000000E+00
  0.00000000E+00  0.00000000E+00  0.00000000E+00
  0.00000000E+00  0.00000000E+00  0.00000000E+00
  0.00000000E+00  0.00000000E+00  0.00000000E+00
  0.00000000E+00  0.00000000E+00  0.00000000E+00
  0.00000000E+00  0.00000000E+00  0.00000000E+00
  0.00000000E+00  0.00000000E+00  0.00000000E+00
  0.00000000E+00  0.00000000E+00  0.00000000E+00
  0.00000000E+00  0.00000000E+00  0.00000000E+00
  0.00000000E+00  0.00000000E+00  0.00000000E+00
  0.00000000E+00  0.00000000E+00  0.00000000E+00
  0.00000000E+00  0.00000000E+00  0.00000000E+00
  0.00000000E+00  0.00000000E+00  0.00000000E+00
  0.00000000E+00  0.00000000E+00  0.00000000E+00
  0.00000000E+00  0.00000000E+00  0.00000000E+00
  0.00000000E+00  0.00000000E+00  0.00000000E+00
  0.00000000E+00  0.00000000E+00  0.00000000E+00
  0.00000000E+00  0.00000000E+00  0.00000000E+00
  0.00000000E+00  0.00000000E+00  0.00000000E+00
  0.00000000E+00  0.00000000E+00  0.00000000E+00
  0.00000000E+00  0.00000000E+00  0.00000000E+00
  0.00000000E+00  0.00000000E+00  0.00000000E+00
  0.00000000E+00  0.00000000E+00  0.00000000E+00
  0.00000000E+00  0.00000000E+00  0.00000000E+00
  0.00000000E+00  0.00000000E+00  0.00000000E+00
  0.00000000E+00  0.00000000E+00  0.00000000E+00
  0.00000000E+00  0.00000000E+00  0.00000000E+00
  0.00000000E+00  0.00000000E+00  0.00000000E+00
  0.00000000E+00  0.00000000E+00  0.00000000E+00
  0.00000000E+00  0.00000000E+00  0.00000000E+00
  0.00000000E+00  0.00000000E+00  0.00000000E+00
  0.00000000E+00  0.00000000E+00  0.00000000E+00
  0.00000000E+00  0.00000000E+00  0.00000000E+00
  0.00000000E+00  0.00000000E+00  0.00000000E+00
  0.00000000E+00  0.00000000E+00  0.00000000E+00
  0.00000000E+00  0.00000000E+00  0.00000000E+00
  0.00000000E+00  0.00000000E+00  0.00000000E+00
  0.00000000E+00  0.00000000E+00  0.00000000E+00
  0.00000000E+00  0.00000000E+00  0.00000000E+00
  0.00000000E+00  0.00000000E+00  0.00000000E+00
