 H  C Co  N                             
   1.00000000000000     
    14.6868000031000001    0.0000000000000000    0.0000000000000000
    -4.8955947811999998   13.8468496803000001    0.0000000000000000
    -4.8955947811999998   -6.9234137671999996   11.9917299785000004
   H    C    Co   N 
    60    48     6    24
Direct
  0.4907964204300766  0.2480524242898305  0.0129691718482536
  0.5063207771852779  0.5215760793709014  0.7558290193849153
  0.7649834977344585  0.7507380647126871  0.2430049594513505
  0.0152379715492018  0.4936709931093969  0.2494825627667784
  0.7558086778520077  0.5063227052731893  0.5215593939201949
  0.9854104344204774  0.2349017493970616  0.4779321946142495
  0.2429344544677264  0.7650315802855042  0.7505805785356772
  0.2484867435417386  0.4907256831613553  0.0103293802735040
  0.4930994699772372  0.0139095223399172  0.2478816097291706
  0.5063198233791263  0.7558295853454160  0.5215764002727038
  0.2349191577286783  0.9856086609588676  0.4779700310585679
  0.7649873261030862  0.2430054085850326  0.7507273833210677
  0.3733352223196847  0.0709409211473324  0.5121115862600942
  0.5588500087844959  0.8610741931595036  0.4879529141660588
  0.4410978913318314  0.9291150752856828  0.3021721689555371
  0.6265248792191730  0.1387019284750273  0.6975095337811844
  0.5186238573882870  0.3884185496616922  0.0756108621255447
  0.4812375381988260  0.5569152570523552  0.8697782559754580
  0.3035610344076977  0.4422435996468813  0.9291871619738115
  0.6871049961484402  0.6114306048837902  0.1301652994950170
  0.0756316651581226  0.5186771287879175  0.3884752805027602
  0.8697744880385451  0.4812780031328932  0.5569307691134020
  0.9242996089535398  0.3128796899064274  0.4430501951468294
  0.1301480211218342  0.6871034240058792  0.6114249094667158
  0.0709427165098095  0.3733626019640611  0.5121223371166426
  0.8610412101711949  0.5588761551805079  0.4879815104559586
  0.9293078222303708  0.4406970015372626  0.3017501860322584
  0.1387029849619616  0.6265549862940881  0.6975295307052384
  0.3887946204939624  0.5188470620420100  0.0758990753176363
  0.5588514800798553  0.4879551013626805  0.8610734014432658
  0.4411950534789914  0.3024923265767349  0.9290276853837433
  0.6265271343692580  0.6975125852568906  0.1387007922455420
  0.5186074143958991  0.0755866334414771  0.3883459995553573
  0.4812401329876494  0.8697795742055843  0.5569177137452752
  0.3128533102518057  0.9243281732043477  0.4430319123662147
  0.6871046789835759  0.1301655600219270  0.6114300586297325
  0.4157312192330092  0.8866137464575025  0.7675594431598403
  0.1190029522921280  0.6481871251973664  0.2323232629373896
  0.8809436925403742  0.1133492254761456  0.5291394062394110
  0.5839997343353046  0.3517410448099944  0.4707435671776393
  0.7674685411095367  0.4156492156509340  0.8865631351240449
  0.2324150751295598  0.1190470037976881  0.6481664982068668
  0.5291063683750508  0.8809517875574394  0.1133596070622073
  0.4708608949252012  0.5842633133583689  0.3518028396787253
  0.8865745225418943  0.7675024710396104  0.4156922629663996
  0.6481684982682326  0.2324345307393436  0.1190558871769442
  0.1133749017478411  0.5291014801674780  0.8809231826294569
  0.3517774193733022  0.4708471623539902  0.5842158273070858
  0.8866132548887141  0.4157569084840076  0.7675719017495781
  0.6481708474584286  0.1190164602125056  0.2323495375300863
  0.1133185380201251  0.8809654879950360  0.5291605108645216
  0.3517719399676238  0.5841247954968453  0.4708037604235515
  0.4156390322439782  0.7674808398524554  0.8865673141394720
  0.1190128631316569  0.2323655056381939  0.6481599518032116
  0.8809351995984223  0.5291124002576970  0.1133694645649093
  0.5841433371349992  0.4708181969653437  0.3517982205013729
  0.7674690864488501  0.8865627666375160  0.4156489270437081
  0.2323974778612615  0.6481813488100865  0.1190431168087017
  0.5290704948445449  0.1133928891287362  0.8809082328492178
  0.4708625603731774  0.3518040016748818  0.5842667650920796
  0.4119518469093483  0.9428303006596152  0.7347838342244799
  0.2080243555049500  0.6771604299889151  0.2651873150237476
  0.7919459941163778  0.0571420241479788  0.4691240188403901
  0.5879959279236688  0.3228213062700505  0.5308507808883999
  0.7347541757388796  0.4119702850275337  0.9428447917519646
  0.2652129706507509  0.2080697261040960  0.6771951956225951
  0.4691227101072864  0.7919636428624228  0.0571534078531538
  0.5308584845911090  0.5880083254150613  0.3227890631832670
  0.9428418483416380  0.7347646870920193  0.4119707545781920
  0.6771934500677746  0.2652267344771659  0.2080759583707710
  0.0571277455657822  0.4691150045259940  0.7919143790750334
  0.3227672603131327  0.5308623442255952  0.5880135187527953
  0.9428324647507089  0.4119667054686666  0.7348005864860767
  0.6771564336472560  0.2080311902803393  0.2651947194782314
  0.0571365202359068  0.7919559551959304  0.4691234876738961
  0.3228058957830423  0.5880162250618369  0.5308556103241728
  0.4119511160134180  0.7347639922269680  0.9428398924314443
  0.2080240085699436  0.2651883579460477  0.6771627321903023
  0.7919457770662778  0.4691253363650437  0.0571458935610241
  0.5880013148545964  0.5308519613144441  0.3228212306686715
  0.7347552615323601  0.9428432382594476  0.4119696908973345
  0.2652174226259691  0.6771983234397861  0.2080723047158812
  0.4691111608969760  0.0571427444585036  0.7919056071588160
  0.5308567511624556  0.3227847737050044  0.5880086373464188
  0.3661212385671753  0.9997836919219071  0.6159468613435357
  0.3838278147098750  0.7501941759316548  0.3840467463197190
  0.6161130267642759  0.0001891908406997  0.3663395883660871
  0.6338368103684417  0.2497907027224265  0.6336406267748949
  0.6161156740819793  0.3662886668463470  0.0001878108654085
  0.3838276259692485  0.3840539279589792  0.7502056229418034
  0.3664852551700286  0.6162782821901736  0.0002961755523320
  0.6338494197507138  0.6336474875751675  0.2498016297333145
  0.0001557611592786  0.6161053434349851  0.3663336745169624
  0.7501829486576918  0.3838351851239074  0.3840421792116501
  0.9997655556193904  0.3661315622339104  0.6159319401234532
  0.2497867563586963  0.6338359148454129  0.6336314651607767
  0.3186767438481783  0.9954644172958043  0.5078166886070641
  0.4876400776321906  0.8106657923172448  0.4922463965937099
  0.5122794412522839  0.0045996127418666  0.3227517921827818
  0.6811965768302910  0.1890788741794957  0.6767119680089175
  0.5122405024491765  0.3229711298560070  0.0045156930190630
  0.4876403029236416  0.4922479407237004  0.8106651523971247
  0.3246732518251056  0.5130302723561674  0.0049000442823550
  0.6811965462437530  0.6767120260859145  0.1890785610478110
  0.0046111048533330  0.5123260899180030  0.3229673836039226
  0.8106464910488044  0.4876480378718080  0.4922489696725674
  0.9954653370218448  0.3187405533349694  0.5078399645868117
  0.1890614076172253  0.6811938946868902  0.6766970857169651
  0.2499385126913566  0.7499733349045001  0.4999673419847790
  0.7499417925584231  0.2499635862247368  0.4999819989300655
  0.4999432781514050  0.2499796106625064  0.7499685193712038
  0.4999454740191156  0.7499811478350421  0.2499664763046898
  0.7499587970489434  0.4999511812041759  0.2499661483983241
  0.2499473317410216  0.4999376067674061  0.7499671527820037
  0.3472645221377070  0.9059489744049154  0.6234432118104287
  0.2824951351707081  0.7238149897977557  0.3765410880991984
  0.7174660857674218  0.0940204310075572  0.4413115769248094
  0.6527032367145896  0.2761521248018278  0.5586720138170653
  0.6233237483706218  0.3473364575068174  0.9060097251373220
  0.3766451604591935  0.2826694904152514  0.7239787292040106
  0.4413326622663389  0.7175099616000844  0.0940525973786726
  0.5586754267085570  0.6526619935157402  0.2760032807901918
  0.9059965015883498  0.6233236560881210  0.3473313470046272
  0.7239751984500759  0.3766469610590378  0.2826637119474695
  0.0939617325280376  0.4413120976533156  0.7173085086330588
  0.2759734705580869  0.5586564226403297  0.6526458271801671
  0.9059450829413919  0.3472686729018231  0.6234395072438890
  0.7238085553893471  0.2824991283470150  0.3765398590059171
  0.0940089729085852  0.7174649239687761  0.4413071830689177
  0.2761494600669300  0.6527073718798093  0.5586673739265617
  0.3473206348532708  0.6233515487914035  0.9060180347155971
  0.2825019321644601  0.3765518310852096  0.7238349747572048
  0.7174658516875040  0.4413086078800733  0.0940214153881641
  0.6527038037018953  0.5586712220157972  0.2761503806296982
  0.6233205594215715  0.9060097834739204  0.3473431603532374
  0.3766451801627216  0.7239801258316343  0.2826671919001507
  0.4413054562554151  0.0939715700850700  0.7173200382938387
  0.5586588726276144  0.2759804713171707  0.6526496911205407
 
  0.00000000E+00  0.00000000E+00  0.00000000E+00
  0.00000000E+00  0.00000000E+00  0.00000000E+00
  0.00000000E+00  0.00000000E+00  0.00000000E+00
  0.00000000E+00  0.00000000E+00  0.00000000E+00
  0.00000000E+00  0.00000000E+00  0.00000000E+00
  0.00000000E+00  0.00000000E+00  0.00000000E+00
  0.00000000E+00  0.00000000E+00  0.00000000E+00
  0.00000000E+00  0.00000000E+00  0.00000000E+00
  0.00000000E+00  0.00000000E+00  0.00000000E+00
  0.00000000E+00  0.00000000E+00  0.00000000E+00
  0.00000000E+00  0.00000000E+00  0.00000000E+00
  0.00000000E+00  0.00000000E+00  0.00000000E+00
  0.00000000E+00  0.00000000E+00  0.00000000E+00
  0.00000000E+00  0.00000000E+00  0.00000000E+00
  0.00000000E+00  0.00000000E+00  0.00000000E+00
  0.00000000E+00  0.00000000E+00  0.00000000E+00
  0.00000000E+00  0.00000000E+00  0.00000000E+00
  0.00000000E+00  0.00000000E+00  0.00000000E+00
  0.00000000E+00  0.00000000E+00  0.00000000E+00
  0.00000000E+00  0.00000000E+00  0.00000000E+00
  0.00000000E+00  0.00000000E+00  0.00000000E+00
  0.00000000E+00  0.00000000E+00  0.00000000E+00
  0.00000000E+00  0.00000000E+00  0.00000000E+00
  0.00000000E+00  0.00000000E+00  0.00000000E+00
  0.00000000E+00  0.00000000E+00  0.00000000E+00
  0.00000000E+00  0.00000000E+00  0.00000000E+00
  0.00000000E+00  0.00000000E+00  0.00000000E+00
  0.00000000E+00  0.00000000E+00  0.00000000E+00
  0.00000000E+00  0.00000000E+00  0.00000000E+00
  0.00000000E+00  0.00000000E+00  0.00000000E+00
  0.00000000E+00  0.00000000E+00  0.00000000E+00
  0.00000000E+00  0.00000000E+00  0.00000000E+00
  0.00000000E+00  0.00000000E+00  0.00000000E+00
  0.00000000E+00  0.00000000E+00  0.00000000E+00
  0.00000000E+00  0.00000000E+00  0.00000000E+00
  0.00000000E+00  0.00000000E+00  0.00000000E+00
  0.00000000E+00  0.00000000E+00  0.00000000E+00
  0.00000000E+00  0.00000000E+00  0.00000000E+00
  0.00000000E+00  0.00000000E+00  0.00000000E+00
  0.00000000E+00  0.00000000E+00  0.00000000E+00
  0.00000000E+00  0.00000000E+00  0.00000000E+00
  0.00000000E+00  0.00000000E+00  0.00000000E+00
  0.00000000E+00  0.00000000E+00  0.00000000E+00
  0.00000000E+00  0.00000000E+00  0.00000000E+00
  0.00000000E+00  0.00000000E+00  0.00000000E+00
  0.00000000E+00  0.00000000E+00  0.00000000E+00
  0.00000000E+00  0.00000000E+00  0.00000000E+00
  0.00000000E+00  0.00000000E+00  0.00000000E+00
  0.00000000E+00  0.00000000E+00  0.00000000E+00
  0.00000000E+00  0.00000000E+00  0.00000000E+00
  0.00000000E+00  0.00000000E+00  0.00000000E+00
  0.00000000E+00  0.00000000E+00  0.00000000E+00
  0.00000000E+00  0.00000000E+00  0.00000000E+00
  0.00000000E+00  0.00000000E+00  0.00000000E+00
  0.00000000E+00  0.00000000E+00  0.00000000E+00
  0.00000000E+00  0.00000000E+00  0.00000000E+00
  0.00000000E+00  0.00000000E+00  0.00000000E+00
  0.00000000E+00  0.00000000E+00  0.00000000E+00
  0.00000000E+00  0.00000000E+00  0.00000000E+00
  0.00000000E+00  0.00000000E+00  0.00000000E+00
  0.00000000E+00  0.00000000E+00  0.00000000E+00
  0.00000000E+00  0.00000000E+00  0.00000000E+00
  0.00000000E+00  0.00000000E+00  0.00000000E+00
  0.00000000E+00  0.00000000E+00  0.00000000E+00
  0.00000000E+00  0.00000000E+00  0.00000000E+00
  0.00000000E+00  0.00000000E+00  0.00000000E+00
  0.00000000E+00  0.00000000E+00  0.00000000E+00
  0.00000000E+00  0.00000000E+00  0.00000000E+00
  0.00000000E+00  0.00000000E+00  0.00000000E+00
  0.00000000E+00  0.00000000E+00  0.00000000E+00
  0.00000000E+00  0.00000000E+00  0.00000000E+00
  0.00000000E+00  0.00000000E+00  0.00000000E+00
  0.00000000E+00  0.00000000E+00  0.00000000E+00
  0.00000000E+00  0.00000000E+00  0.00000000E+00
  0.00000000E+00  0.00000000E+00  0.00000000E+00
  0.00000000E+00  0.00000000E+00  0.00000000E+00
  0.00000000E+00  0.00000000E+00  0.00000000E+00
  0.00000000E+00  0.00000000E+00  0.00000000E+00
  0.00000000E+00  0.00000000E+00  0.00000000E+00
  0.00000000E+00  0.00000000E+00  0.00000000E+00
  0.00000000E+00  0.00000000E+00  0.00000000E+00
  0.00000000E+00  0.00000000E+00  0.00000000E+00
  0.00000000E+00  0.00000000E+00  0.00000000E+00
  0.00000000E+00  0.00000000E+00  0.00000000E+00
  0.00000000E+00  0.00000000E+00  0.00000000E+00
  0.00000000E+00  0.00000000E+00  0.00000000E+00
  0.00000000E+00  0.00000000E+00  0.00000000E+00
  0.00000000E+00  0.00000000E+00  0.00000000E+00
  0.00000000E+00  0.00000000E+00  0.00000000E+00
  0.00000000E+00  0.00000000E+00  0.00000000E+00
  0.00000000E+00  0.00000000E+00  0.00000000E+00
  0.00000000E+00  0.00000000E+00  0.00000000E+00
  0.00000000E+00  0.00000000E+00  0.00000000E+00
  0.00000000E+00  0.00000000E+00  0.00000000E+00
  0.00000000E+00  0.00000000E+00  0.00000000E+00
  0.00000000E+00  0.00000000E+00  0.00000000E+00
  0.00000000E+00  0.00000000E+00  0.00000000E+00
  0.00000000E+00  0.00000000E+00  0.00000000E+00
  0.00000000E+00  0.00000000E+00  0.00000000E+00
  0.00000000E+00  0.00000000E+00  0.00000000E+00
  0.00000000E+00  0.00000000E+00  0.00000000E+00
  0.00000000E+00  0.00000000E+00  0.00000000E+00
  0.00000000E+00  0.00000000E+00  0.00000000E+00
  0.00000000E+00  0.00000000E+00  0.00000000E+00
  0.00000000E+00  0.00000000E+00  0.00000000E+00
  0.00000000E+00  0.00000000E+00  0.00000000E+00
  0.00000000E+00  0.00000000E+00  0.00000000E+00
  0.00000000E+00  0.00000000E+00  0.00000000E+00
  0.00000000E+00  0.00000000E+00  0.00000000E+00
  0.00000000E+00  0.00000000E+00  0.00000000E+00
  0.00000000E+00  0.00000000E+00  0.00000000E+00
  0.00000000E+00  0.00000000E+00  0.00000000E+00
  0.00000000E+00  0.00000000E+00  0.00000000E+00
  0.00000000E+00  0.00000000E+00  0.00000000E+00
  0.00000000E+00  0.00000000E+00  0.00000000E+00
  0.00000000E+00  0.00000000E+00  0.00000000E+00
  0.00000000E+00  0.00000000E+00  0.00000000E+00
  0.00000000E+00  0.00000000E+00  0.00000000E+00
  0.00000000E+00  0.00000000E+00  0.00000000E+00
  0.00000000E+00  0.00000000E+00  0.00000000E+00
  0.00000000E+00  0.00000000E+00  0.00000000E+00
  0.00000000E+00  0.00000000E+00  0.00000000E+00
  0.00000000E+00  0.00000000E+00  0.00000000E+00
  0.00000000E+00  0.00000000E+00  0.00000000E+00
  0.00000000E+00  0.00000000E+00  0.00000000E+00
  0.00000000E+00  0.00000000E+00  0.00000000E+00
  0.00000000E+00  0.00000000E+00  0.00000000E+00
  0.00000000E+00  0.00000000E+00  0.00000000E+00
  0.00000000E+00  0.00000000E+00  0.00000000E+00
  0.00000000E+00  0.00000000E+00  0.00000000E+00
  0.00000000E+00  0.00000000E+00  0.00000000E+00
  0.00000000E+00  0.00000000E+00  0.00000000E+00
  0.00000000E+00  0.00000000E+00  0.00000000E+00
  0.00000000E+00  0.00000000E+00  0.00000000E+00
  0.00000000E+00  0.00000000E+00  0.00000000E+00
  0.00000000E+00  0.00000000E+00  0.00000000E+00
  0.00000000E+00  0.00000000E+00  0.00000000E+00
  0.00000000E+00  0.00000000E+00  0.00000000E+00
