 H  C Zn  N                             
   1.00000000000000     
    14.7145996094000004    0.0000000000000000    0.0000000000000000
    -4.9048613067000000   13.8730594039999993    0.0000000000000000
    -4.9048613067000000   -6.9365186080000001   12.0144282771000004
   H    C    Zn   N 
    60    48     6    24
Direct
  0.5822999479999993  0.1010999679999998  0.2366000410000026
  0.8644999269999971  0.3456999060000001  0.7633999589999974
  0.1355000730000029  0.8989000320000002  0.4811999799999995
  0.4177000520000007  0.6543000939999999  0.5188000200000005
  0.2366000410000026  0.5822999479999993  0.1010999679999998
  0.7633999589999974  0.8644999269999971  0.3456999060000001
  0.4811999799999995  0.1355000730000029  0.8989000320000002
  0.5188000200000005  0.4177000520000007  0.6543000939999999
  0.1010999679999998  0.2366000410000026  0.5822999479999993
  0.3456999060000001  0.7633999589999974  0.8644999269999971
  0.8989000320000002  0.4811999799999995  0.1355000730000029
  0.6543000939999999  0.5188000200000005  0.4177000520000007
  0.1010999679999998  0.5822999479999993  0.2366000410000026
  0.3456999060000001  0.8644999269999971  0.7633999589999974
  0.8989000320000002  0.1355000730000029  0.4811999799999995
  0.6543000939999999  0.4177000520000007  0.5188000200000005
  0.5822999479999993  0.2366000410000026  0.1010999679999998
  0.8644999269999971  0.7633999589999974  0.3456999060000001
  0.1355000730000029  0.4811999799999995  0.8989000320000002
  0.4177000520000007  0.5188000200000005  0.6543000939999999
  0.2366000410000026  0.1010999679999998  0.5822999479999993
  0.7633999589999974  0.3456999060000001  0.8644999269999971
  0.4811999799999995  0.8989000320000002  0.1355000730000029
  0.5188000200000005  0.6543000939999999  0.4177000520000007
  0.6540999409999984  0.0329999920000006  0.5384999509999986
  0.4945000410000020  0.1155999899999998  0.4615000490000014
  0.5384999509999986  0.6540999409999984  0.0329999920000006
  0.4615000490000014  0.4945000410000020  0.1155999899999998
  0.3789000510000022  0.3459000590000016  0.8844000100000002
  0.0329999920000006  0.5384999509999986  0.6540999409999984
  0.1155999899999998  0.4615000490000014  0.4945000410000020
  0.9670000079999994  0.6210999489999978  0.5054999589999980
  0.8844000100000002  0.3789000510000022  0.3459000590000016
  0.6540999409999984  0.5384999509999986  0.0329999920000006
  0.5384999509999986  0.0329999920000006  0.6540999409999984
  0.3789000510000022  0.8844000100000002  0.3459000590000016
  0.7591999770000015  0.0421999690000021  0.5285999769999989
  0.5135999920000032  0.2305999989999989  0.4714000230000011
  0.5285999769999989  0.7591999770000015  0.0421999690000021
  0.4714000230000011  0.5135999920000032  0.2305999989999989
  0.2829999920000006  0.2408000229999985  0.7694000010000011
  0.0421999690000021  0.5285999769999989  0.7591999770000015
  0.2305999989999989  0.4714000230000011  0.5135999920000032
  0.9578000309999979  0.7170000079999994  0.4864000079999968
  0.7694000010000011  0.2829999920000006  0.2408000229999985
  0.7591999770000015  0.5285999769999989  0.0421999690000021
  0.5285999769999989  0.0421999690000021  0.7591999770000015
  0.2829999920000006  0.7694000010000011  0.2408000229999985
  0.6563999649999985  0.9248999949999970  0.4763000009999985
  0.4485999939999985  0.1800999640000001  0.5236999990000015
  0.4763000009999985  0.6563999649999985  0.9248999949999970
  0.5236999990000015  0.4485999939999985  0.1800999640000001
  0.2685000299999984  0.3436000350000015  0.8199000359999999
  0.9248999949999970  0.4763000009999985  0.6563999649999985
  0.1800999640000001  0.5236999990000015  0.4485999939999985
  0.0751000050000030  0.7314999700000016  0.5514000060000015
  0.8199000359999999  0.2685000299999984  0.3436000350000015
  0.6563999649999985  0.4763000009999985  0.9248999949999970
  0.4763000009999985  0.9248999949999970  0.6563999649999985
  0.2685000299999984  0.8199000359999999  0.3436000350000015
  0.5866400000000027  0.0560100080000012  0.2676500079999968
  0.7883599999999973  0.3189899919999988  0.7323499920000032
  0.2116400000000027  0.9439899919999988  0.5306299920000015
  0.4133599999999973  0.6810100080000012  0.4693700079999985
  0.2676500079999968  0.5866400000000027  0.0560100080000012
  0.7323499920000032  0.7883599999999973  0.3189899919999988
  0.5306299920000015  0.2116400000000027  0.9439899919999988
  0.4693700079999985  0.4133599999999973  0.6810100080000012
  0.0560100080000012  0.2676500079999968  0.5866400000000027
  0.3189899919999988  0.7323499920000032  0.7883599999999973
  0.9439899919999988  0.5306299920000015  0.2116400000000027
  0.6810100080000012  0.4693700079999985  0.4133599999999973
  0.0560100080000012  0.5866400000000027  0.2676500079999968
  0.3189899919999988  0.7883599999999973  0.7323499920000032
  0.9439899919999988  0.2116400000000027  0.5306299920000015
  0.6810100080000012  0.4133599999999973  0.4693700079999985
  0.5866400000000027  0.2676500079999968  0.0560100080000012
  0.7883599999999973  0.7323499919999961  0.3189899919999988
  0.2116400000000027  0.5306299920000015  0.9439899919999988
  0.4133599999999973  0.4693700079999985  0.6810100080000012
  0.2676500079999968  0.0560100080000012  0.5866400000000027
  0.7323499920000032  0.3189899919999988  0.7883599999999973
  0.5306299920000015  0.9439899919999988  0.2116400000000027
  0.4693700079999985  0.6810100080000012  0.4133599999999973
  0.6308499570000023  0.0000000000000000  0.3849500419999998
  0.6150499580000002  0.2458999159999991  0.6150499580000002
  0.3849500419999998  0.0000000000000000  0.6308499570000023
  0.3691500429999977  0.7541000840000009  0.3691500429999977
  0.3849500419999998  0.6308499570000023  0.0000000000000000
  0.6150499580000002  0.6150499580000002  0.2458999159999991
  0.6308499570000023  0.3849500419999998  0.0000000000000000
  0.3691500429999977  0.3691500429999977  0.7541000840000009
  0.0000000000000000  0.3849500419999998  0.6308499570000023
  0.2458999159999991  0.6150499580000002  0.6150499580000002
  0.0000000000000000  0.6308499570000023  0.3849500419999998
  0.7541000840000009  0.3691500429999977  0.3691500429999977
  0.6793999670000019  0.0000000000000000  0.4916000369999978
  0.5083999630000022  0.1877999310000007  0.5083999630000022
  0.4916000369999978  0.0000000000000000  0.6793999670000019
  0.3206000329999981  0.8122000689999993  0.3206000329999981
  0.4916000369999978  0.6793999670000019  0.0000000000000000
  0.5083999630000022  0.5083999630000022  0.1877999310000007
  0.6793999670000019  0.4916000369999978  0.0000000000000000
  0.3206000329999981  0.3206000329999981  0.8122000689999993
  0.0000000000000000  0.4916000369999978  0.6793999670000019
  0.1877999310000007  0.5083999630000022  0.5083999630000022
  0.0000000000000000  0.6793999670000019  0.4916000369999978
  0.8122000689999993  0.3206000329999981  0.3206000329999981
  0.7500000000000000  0.2500000000000000  0.5000000000000000
  0.2500000000000000  0.7500000000000000  0.5000000000000000
  0.5000000000000000  0.7500000000000000  0.2500000000000000
  0.5000000000000000  0.2500000000000000  0.7500000000000000
  0.2500000000000000  0.5000000000000000  0.7500000000000000
  0.7500000000000000  0.5000000000000000  0.2500000000000000
  0.6511000389999992  0.0925099849999995  0.3780499699999993
  0.7144600150000002  0.2730500699999965  0.6219500300000007
  0.2855399849999998  0.9074900150000005  0.5585900550000034
  0.3488999610000008  0.7269499299999964  0.4414099449999966
  0.3780499699999993  0.6511000389999992  0.0925099849999995
  0.6219500300000007  0.7144600150000002  0.2730500699999965
  0.5585900550000034  0.2855399849999998  0.9074900150000005
  0.4414099449999966  0.3488999610000008  0.7269499299999964
  0.0925099849999995  0.3780499699999993  0.6511000389999992
  0.2730500699999965  0.6219500300000007  0.7144600150000002
  0.9074900150000005  0.5585900550000034  0.2855399849999998
  0.7269499300000035  0.4414099449999966  0.3488999610000008
  0.0925099849999995  0.6511000389999992  0.3780499699999993
  0.2730500699999965  0.7144600150000002  0.6219500300000007
  0.9074900150000005  0.2855399849999998  0.5585900550000034
  0.7269499300000035  0.3488999610000008  0.4414099449999966
  0.6511000389999992  0.3780499699999993  0.0925099849999995
  0.7144600150000002  0.6219500300000007  0.2730500699999965
  0.2855399849999998  0.5585900550000034  0.9074900150000005
  0.3488999610000008  0.4414099449999966  0.7269499299999964
  0.3780499699999993  0.0925099849999995  0.6511000389999992
  0.6219500300000007  0.2730500699999965  0.7144600150000002
  0.5585900550000034  0.9074900150000005  0.2855399849999998
  0.4414099449999966  0.7269499299999964  0.3488999610000008
 
  0.00000000E+00  0.00000000E+00  0.00000000E+00
  0.00000000E+00  0.00000000E+00  0.00000000E+00
  0.00000000E+00  0.00000000E+00  0.00000000E+00
  0.00000000E+00  0.00000000E+00  0.00000000E+00
  0.00000000E+00  0.00000000E+00  0.00000000E+00
  0.00000000E+00  0.00000000E+00  0.00000000E+00
  0.00000000E+00  0.00000000E+00  0.00000000E+00
  0.00000000E+00  0.00000000E+00  0.00000000E+00
  0.00000000E+00  0.00000000E+00  0.00000000E+00
  0.00000000E+00  0.00000000E+00  0.00000000E+00
  0.00000000E+00  0.00000000E+00  0.00000000E+00
  0.00000000E+00  0.00000000E+00  0.00000000E+00
  0.00000000E+00  0.00000000E+00  0.00000000E+00
  0.00000000E+00  0.00000000E+00  0.00000000E+00
  0.00000000E+00  0.00000000E+00  0.00000000E+00
  0.00000000E+00  0.00000000E+00  0.00000000E+00
  0.00000000E+00  0.00000000E+00  0.00000000E+00
  0.00000000E+00  0.00000000E+00  0.00000000E+00
  0.00000000E+00  0.00000000E+00  0.00000000E+00
  0.00000000E+00  0.00000000E+00  0.00000000E+00
  0.00000000E+00  0.00000000E+00  0.00000000E+00
  0.00000000E+00  0.00000000E+00  0.00000000E+00
  0.00000000E+00  0.00000000E+00  0.00000000E+00
  0.00000000E+00  0.00000000E+00  0.00000000E+00
  0.00000000E+00  0.00000000E+00  0.00000000E+00
  0.00000000E+00  0.00000000E+00  0.00000000E+00
  0.00000000E+00  0.00000000E+00  0.00000000E+00
  0.00000000E+00  0.00000000E+00  0.00000000E+00
  0.00000000E+00  0.00000000E+00  0.00000000E+00
  0.00000000E+00  0.00000000E+00  0.00000000E+00
  0.00000000E+00  0.00000000E+00  0.00000000E+00
  0.00000000E+00  0.00000000E+00  0.00000000E+00
  0.00000000E+00  0.00000000E+00  0.00000000E+00
  0.00000000E+00  0.00000000E+00  0.00000000E+00
  0.00000000E+00  0.00000000E+00  0.00000000E+00
  0.00000000E+00  0.00000000E+00  0.00000000E+00
  0.00000000E+00  0.00000000E+00  0.00000000E+00
  0.00000000E+00  0.00000000E+00  0.00000000E+00
  0.00000000E+00  0.00000000E+00  0.00000000E+00
  0.00000000E+00  0.00000000E+00  0.00000000E+00
  0.00000000E+00  0.00000000E+00  0.00000000E+00
  0.00000000E+00  0.00000000E+00  0.00000000E+00
  0.00000000E+00  0.00000000E+00  0.00000000E+00
  0.00000000E+00  0.00000000E+00  0.00000000E+00
  0.00000000E+00  0.00000000E+00  0.00000000E+00
  0.00000000E+00  0.00000000E+00  0.00000000E+00
  0.00000000E+00  0.00000000E+00  0.00000000E+00
  0.00000000E+00  0.00000000E+00  0.00000000E+00
  0.00000000E+00  0.00000000E+00  0.00000000E+00
  0.00000000E+00  0.00000000E+00  0.00000000E+00
  0.00000000E+00  0.00000000E+00  0.00000000E+00
  0.00000000E+00  0.00000000E+00  0.00000000E+00
  0.00000000E+00  0.00000000E+00  0.00000000E+00
  0.00000000E+00  0.00000000E+00  0.00000000E+00
  0.00000000E+00  0.00000000E+00  0.00000000E+00
  0.00000000E+00  0.00000000E+00  0.00000000E+00
  0.00000000E+00  0.00000000E+00  0.00000000E+00
  0.00000000E+00  0.00000000E+00  0.00000000E+00
  0.00000000E+00  0.00000000E+00  0.00000000E+00
  0.00000000E+00  0.00000000E+00  0.00000000E+00
  0.00000000E+00  0.00000000E+00  0.00000000E+00
  0.00000000E+00  0.00000000E+00  0.00000000E+00
  0.00000000E+00  0.00000000E+00  0.00000000E+00
  0.00000000E+00  0.00000000E+00  0.00000000E+00
  0.00000000E+00  0.00000000E+00  0.00000000E+00
  0.00000000E+00  0.00000000E+00  0.00000000E+00
  0.00000000E+00  0.00000000E+00  0.00000000E+00
  0.00000000E+00  0.00000000E+00  0.00000000E+00
  0.00000000E+00  0.00000000E+00  0.00000000E+00
  0.00000000E+00  0.00000000E+00  0.00000000E+00
  0.00000000E+00  0.00000000E+00  0.00000000E+00
  0.00000000E+00  0.00000000E+00  0.00000000E+00
  0.00000000E+00  0.00000000E+00  0.00000000E+00
  0.00000000E+00  0.00000000E+00  0.00000000E+00
  0.00000000E+00  0.00000000E+00  0.00000000E+00
  0.00000000E+00  0.00000000E+00  0.00000000E+00
  0.00000000E+00  0.00000000E+00  0.00000000E+00
  0.00000000E+00  0.00000000E+00  0.00000000E+00
  0.00000000E+00  0.00000000E+00  0.00000000E+00
  0.00000000E+00  0.00000000E+00  0.00000000E+00
  0.00000000E+00  0.00000000E+00  0.00000000E+00
  0.00000000E+00  0.00000000E+00  0.00000000E+00
  0.00000000E+00  0.00000000E+00  0.00000000E+00
  0.00000000E+00  0.00000000E+00  0.00000000E+00
  0.00000000E+00  0.00000000E+00  0.00000000E+00
  0.00000000E+00  0.00000000E+00  0.00000000E+00
  0.00000000E+00  0.00000000E+00  0.00000000E+00
  0.00000000E+00  0.00000000E+00  0.00000000E+00
  0.00000000E+00  0.00000000E+00  0.00000000E+00
  0.00000000E+00  0.00000000E+00  0.00000000E+00
  0.00000000E+00  0.00000000E+00  0.00000000E+00
  0.00000000E+00  0.00000000E+00  0.00000000E+00
  0.00000000E+00  0.00000000E+00  0.00000000E+00
  0.00000000E+00  0.00000000E+00  0.00000000E+00
  0.00000000E+00  0.00000000E+00  0.00000000E+00
  0.00000000E+00  0.00000000E+00  0.00000000E+00
  0.00000000E+00  0.00000000E+00  0.00000000E+00
  0.00000000E+00  0.00000000E+00  0.00000000E+00
  0.00000000E+00  0.00000000E+00  0.00000000E+00
  0.00000000E+00  0.00000000E+00  0.00000000E+00
  0.00000000E+00  0.00000000E+00  0.00000000E+00
  0.00000000E+00  0.00000000E+00  0.00000000E+00
  0.00000000E+00  0.00000000E+00  0.00000000E+00
  0.00000000E+00  0.00000000E+00  0.00000000E+00
  0.00000000E+00  0.00000000E+00  0.00000000E+00
  0.00000000E+00  0.00000000E+00  0.00000000E+00
  0.00000000E+00  0.00000000E+00  0.00000000E+00
  0.00000000E+00  0.00000000E+00  0.00000000E+00
  0.00000000E+00  0.00000000E+00  0.00000000E+00
  0.00000000E+00  0.00000000E+00  0.00000000E+00
  0.00000000E+00  0.00000000E+00  0.00000000E+00
  0.00000000E+00  0.00000000E+00  0.00000000E+00
  0.00000000E+00  0.00000000E+00  0.00000000E+00
  0.00000000E+00  0.00000000E+00  0.00000000E+00
  0.00000000E+00  0.00000000E+00  0.00000000E+00
  0.00000000E+00  0.00000000E+00  0.00000000E+00
  0.00000000E+00  0.00000000E+00  0.00000000E+00
  0.00000000E+00  0.00000000E+00  0.00000000E+00
  0.00000000E+00  0.00000000E+00  0.00000000E+00
  0.00000000E+00  0.00000000E+00  0.00000000E+00
  0.00000000E+00  0.00000000E+00  0.00000000E+00
  0.00000000E+00  0.00000000E+00  0.00000000E+00
  0.00000000E+00  0.00000000E+00  0.00000000E+00
  0.00000000E+00  0.00000000E+00  0.00000000E+00
  0.00000000E+00  0.00000000E+00  0.00000000E+00
  0.00000000E+00  0.00000000E+00  0.00000000E+00
  0.00000000E+00  0.00000000E+00  0.00000000E+00
  0.00000000E+00  0.00000000E+00  0.00000000E+00
  0.00000000E+00  0.00000000E+00  0.00000000E+00
  0.00000000E+00  0.00000000E+00  0.00000000E+00
  0.00000000E+00  0.00000000E+00  0.00000000E+00
  0.00000000E+00  0.00000000E+00  0.00000000E+00
  0.00000000E+00  0.00000000E+00  0.00000000E+00
  0.00000000E+00  0.00000000E+00  0.00000000E+00
  0.00000000E+00  0.00000000E+00  0.00000000E+00
  0.00000000E+00  0.00000000E+00  0.00000000E+00
  0.00000000E+00  0.00000000E+00  0.00000000E+00
  0.00000000E+00  0.00000000E+00  0.00000000E+00
