 H  C Co  N                             
   1.00000000000000     
    14.2486000061000002    0.0000000000000000    0.0000000000000000
    -4.2238055704999997   13.6081618389999992    0.0000000000000000
    -4.2238055704999997   -5.7336068234999997   12.3413054994000007
   H    C    Co   N 
    60    84     6    24
Direct
  0.5040935295922822  0.9156792961249067  0.0877312619277859
  0.4959064704077178  0.0843206958750926  0.9122687680722095
  0.0877312619277859  0.5040935295922822  0.9156792961249067
  0.9122687680722095  0.4959064704077178  0.0843206958750926
  0.9156792961249067  0.0877312619277859  0.5040935295922893
  0.0843206958750926  0.9122687680722095  0.4959064704077178
  0.7044808111409182  0.8746438208794842  0.4171056731420322
  0.2955191888590889  0.1253561501205098  0.5828942968579653
  0.4171056731420322  0.7044808111409111  0.8746438208794842
  0.5828942968579653  0.2955191888590889  0.1253561501205098
  0.8746438208794842  0.4171056731420322  0.7044808111409111
  0.1253561501205098  0.5828942968579653  0.2955191888590889
  0.6023099082826349  0.7401714081172273  0.4683211813624055
  0.3976900917173651  0.2598285918827798  0.5316787886375991
  0.4683211813624055  0.6023099082826349  0.7401714081172202
  0.5316787886375991  0.3976900917173651  0.2598285918827798
  0.7401714081172202  0.4683211813624055  0.6023099082826349
  0.2598285918827798  0.5316787886375991  0.3976900917173651
  0.7581157920405488  0.2246059960302560  0.2118663234305700
  0.2418842079594583  0.7753940329697429  0.7881336615694323
  0.2118663234305700  0.7581157920405488  0.2246059960302560
  0.7881336615694323  0.2418842079594512  0.7753940329697429
  0.2246059960302560  0.2118663234305700  0.7581157920405488
  0.7753940329697429  0.7881336615694323  0.2418842079594512
  0.6754589360767085  0.8293415743262713  0.0552219180653424
  0.3245410639232915  0.1706584256737287  0.9447781039346594
  0.0552219180653424  0.6754589360767085  0.8293415743262713
  0.9447781039346594  0.3245410639232915  0.1706584256737287
  0.8293415743262713  0.0552219180653424  0.6754589360767085
  0.1706584256737287  0.9447781039346594  0.3245410639232915
  0.6290547045211170  0.7366136382460198  0.8607167570755934
  0.3709452954788830  0.2633863917539827  0.1392832579244114
  0.8607167570755934  0.6290547045211170  0.7366136382460198
  0.1392832579244114  0.3709452954788830  0.2633863917539827
  0.7366136382460198  0.8607167570755934  0.6290547045211170
  0.2633863917539827  0.1392832579244114  0.3709452954788830
  0.9712237214087622  0.1853554045870069  0.3430278393062309
  0.0287762785912307  0.8146445654129906  0.6569721306937666
  0.3430278393062309  0.9712237214087622  0.1853554045870069
  0.6569721306937666  0.0287762785912307  0.8146445654129906
  0.1853554045870069  0.3430278393062309  0.9712237214087622
  0.8146445654129906  0.6569721306937666  0.0287762785912307
  0.1668218471952443  0.2600649490863063  0.3880444870313156
  0.8331781528047557  0.7399350659136914  0.6119554829686749
  0.3880444870313227  0.1668218471952443  0.2600649490863063
  0.6119554829686749  0.8331781528047557  0.7399350659136914
  0.2600649490863063  0.3880444870313156  0.1668218471952443
  0.7399350659136914  0.6119554829686749  0.8331781528047557
  0.6391308349322102  0.1946239616001861  0.3056751281236387
  0.3608691650677898  0.8053760233998162  0.6943248418763659
  0.3056751281236387  0.6391308349322102  0.1946239616001861
  0.6943248418763659  0.3608691650677898  0.8053760233998162
  0.1946239616001861  0.3056751281236387  0.6391308349322102
  0.8053760233998162  0.6943248418763659  0.3608691650677898
  0.6209345403118007  0.3599361133066523  0.4110280118968888
  0.3790654596881993  0.6400638566933452  0.5889720181031137
  0.4110280118968888  0.6209345403118007  0.3599361133066523
  0.5889720181031137  0.3790654596881993  0.6400638566933452
  0.3599361133066523  0.4110280118968888  0.6209345403118007
  0.6400638566933452  0.5889720181031137  0.3790654596881993
  0.5037943734194741  0.8778732068859227  0.1437222179834663
  0.4962056265805259  0.1221267931140773  0.8562777960165349
  0.1437222179834663  0.5037943734194741  0.8778732068859227
  0.8562777960165349  0.4962056265805259  0.1221267931140773
  0.8778732068859227  0.1437222179834663  0.5037943734194741
  0.1221267931140773  0.8562777960165349  0.4962056265805259
  0.5616413112702077  0.8356083262438077  0.2777816251104923
  0.4383586887297923  0.1643916737561923  0.7222184048895031
  0.2777816251104923  0.5616413112702077  0.8356083262438077
  0.7222184048895031  0.4383586887297923  0.1643916737561923
  0.8356083262438077  0.2777816251104923  0.5616413112702077
  0.1643916737561923  0.7222184048895031  0.4383586887297923
  0.6189290080230379  0.8242134466310560  0.3691831790606770
  0.3810709919769621  0.1757865683689417  0.6308167919393242
  0.3691831790606770  0.6189290080230379  0.8242134466310560
  0.6308167919393242  0.3810709919769621  0.1757865683689417
  0.8242134466310560  0.3691831790606770  0.6189290080230379
  0.1757865683689417  0.6308167919393242  0.3810709919769621
  0.5597399414856810  0.7476601588189169  0.3957574560394050
  0.4402600585143190  0.2523398111810806  0.6042425439605950
  0.3957574560394050  0.5597399414856810  0.7476601588189169
  0.6042425439605950  0.4402600585143190  0.2523398111810806
  0.7476601588189169  0.3957574560394050  0.5597399414856810
  0.2523398111810806  0.6042425439605950  0.4402600585143190
  0.7315008422109770  0.1491950255724035  0.1407270829353706
  0.2684991577890230  0.8508049594275988  0.8592728870646269
  0.1407270829353706  0.7315008422109770  0.1491950255724035
  0.8592728870646269  0.2684991577890230  0.8508049594275988
  0.1491950255724035  0.1407270829353706  0.7315008422109770
  0.8508049594275988  0.8592728870646269  0.2684991577890230
  0.6893631009044583  0.9825889125789971  0.0448848387103027
  0.3106368990955417  0.0174110674210013  0.9551151642896940
  0.0448848387103027  0.6893631009044654  0.9825889125789971
  0.9551151642896940  0.3106368990955346  0.0174110674210013
  0.9825889125789971  0.0448848387103027  0.6893631009044654
  0.0174110674210013  0.9551151642896940  0.3106368990955346
  0.6684393728578755  0.8736931279406690  0.0044281085744942
  0.3315606271421245  0.1263068570593262  0.9955719114255075
  0.0044281085744942  0.6684393728578755  0.8736931279406690
  0.9955719114255075  0.3315606271421245  0.1263068570593262
  0.8736931279406690  0.0044281085744942  0.6684393728578755
  0.1263068570593262  0.9955719114255075  0.3315606271421245
  0.6415512652652851  0.8215678527891441  0.8938587779124845
  0.3584487347347149  0.1784321472108559  0.1061412300875162
  0.8938587779124845  0.6415512652652851  0.8215678527891441
  0.1061412300875162  0.3584487347347149  0.1784321472108559
  0.8215678527891441  0.8938587779124845  0.6415512652652851
  0.1784321472108559  0.1061412300875162  0.3584487347347149
  0.9624051489764369  0.0232244445009329  0.3153533267487845
  0.0375948510235631  0.9767755834990623  0.6846466432512130
  0.3153533267487845  0.9624051489764369  0.0232244445009329
  0.6846466432512130  0.0375948510235631  0.9767755834990623
  0.0232244445009329  0.3153533267487845  0.9624051489764369
  0.9767755834990623  0.6846466432512130  0.0375948510235631
  0.0141166740606167  0.1326212406824610  0.3404883405400341
  0.9858833259393833  0.8673787593175462  0.6595116894599684
  0.3404883405400341  0.0141166740606167  0.1326212406824610
  0.6595116894599684  0.9858833259393833  0.8673787593175462
  0.1326212406824610  0.3404883405400341  0.0141166740606167
  0.8673787593175462  0.6595116894599684  0.9858833259393833
  0.1237773769145960  0.1737526425954314  0.3645931408385010
  0.8762226230854040  0.8262473574045686  0.6354068591614990
  0.3645931408385010  0.1237773769145960  0.1737526425954314
  0.6354068591614990  0.8762226230854040  0.8262473574045686
  0.1737526425954314  0.3645931408385010  0.1237773769145960
  0.8262473574045686  0.6354068591614990  0.8762226230854040
  0.7703402895096829  0.2168955837869788  0.4493427519624831
  0.2296597104903171  0.7831044162130212  0.5506572480375169
  0.4493427519624831  0.7703402895096829  0.2168955837869788
  0.5506572480375169  0.2296597104903171  0.7831044162130212
  0.2168955837869788  0.4493427519624831  0.7703402895096829
  0.7831044162130212  0.5506572480375169  0.2296597104903171
  0.6922555358145317  0.2440308133288625  0.3921864530774641
  0.3077444641854683  0.7559691716711399  0.6078135769225383
  0.3921864530774641  0.6922555358145317  0.2440308133288625
  0.6078135769225383  0.3077444641854683  0.7559691716711399
  0.2440308133288625  0.3921864530774641  0.6922555358145317
  0.7559691716711399  0.6078135769225383  0.3077444641854683
  0.6819835411655433  0.3351876135206879  0.4496395688512251
  0.3180164588344567  0.6648123864793121  0.5503604601487737
  0.4496395688512251  0.6819835411655433  0.3351876135206879
  0.5503604601487737  0.3180164588344567  0.6648123864793121
  0.3351876135206879  0.4496395688512251  0.6819835411655433
  0.6648123864793121  0.5503604601487737  0.3180164588344567
  0.7372286957102716  0.0131862739442639  0.2733457031100670
  0.2627713042897284  0.9868136960557408  0.7266543268899355
  0.2733457031100670  0.7372286957102716  0.0131862739442639
  0.7266543268899355  0.2627713042897284  0.9868136960557408
  0.0131862739442639  0.2733457031100670  0.7372286957102716
  0.9868136960557408  0.7266543268899355  0.2627713042897284
  0.5953326759349409  0.9028982389649514  0.2288283784474885
  0.4046673240650591  0.0971017760350463  0.7711715915525019
  0.2288283784474885  0.5953326759349409  0.9028982389649514
  0.7711715915525019  0.4046673240650591  0.0971017760350463
  0.9028982389649514  0.2288283784474885  0.5953326759349409
  0.0971017760350463  0.7711715915525019  0.4046673240650591
  0.7177276408839006  0.0542153035672541  0.1495587875117934
  0.2822723591160994  0.9457846814327553  0.8504411974882089
  0.1495587875117934  0.7177276408839006  0.0542153035672541
  0.8504411974882089  0.2822723591160994  0.9457846814327553
  0.0542153035672541  0.1495587875117934  0.7177276408839006
  0.9457846814327553  0.8504411974882089  0.2822723591160994
  0.8557739816689462  0.9599746437865022  0.2892547755101660
  0.1442260183310538  0.0400253672135022  0.7107452544898294
  0.2892547755101660  0.8557739816689462  0.9599746437865022
  0.7107452544898294  0.1442260183310538  0.0400253672135022
  0.9599746437865022  0.2892547755101660  0.8557739816689462
  0.0400253672135022  0.7107452544898294  0.1442260183310538
  0.8007073070731607  0.1321112307986283  0.4137861933258122
  0.1992926929268393  0.8678887392013692  0.5862138066741878
  0.4137861933258122  0.8007073070731607  0.1321112307986283
  0.5862138066741878  0.1992926929268393  0.8678887392013692
  0.1321112307986283  0.4137861933258122  0.8007073070731607
  0.8678887392013692  0.5862138066741878  0.1992926929268393
 
  0.00000000E+00  0.00000000E+00  0.00000000E+00
  0.00000000E+00  0.00000000E+00  0.00000000E+00
  0.00000000E+00  0.00000000E+00  0.00000000E+00
  0.00000000E+00  0.00000000E+00  0.00000000E+00
  0.00000000E+00  0.00000000E+00  0.00000000E+00
  0.00000000E+00  0.00000000E+00  0.00000000E+00
  0.00000000E+00  0.00000000E+00  0.00000000E+00
  0.00000000E+00  0.00000000E+00  0.00000000E+00
  0.00000000E+00  0.00000000E+00  0.00000000E+00
  0.00000000E+00  0.00000000E+00  0.00000000E+00
  0.00000000E+00  0.00000000E+00  0.00000000E+00
  0.00000000E+00  0.00000000E+00  0.00000000E+00
  0.00000000E+00  0.00000000E+00  0.00000000E+00
  0.00000000E+00  0.00000000E+00  0.00000000E+00
  0.00000000E+00  0.00000000E+00  0.00000000E+00
  0.00000000E+00  0.00000000E+00  0.00000000E+00
  0.00000000E+00  0.00000000E+00  0.00000000E+00
  0.00000000E+00  0.00000000E+00  0.00000000E+00
  0.00000000E+00  0.00000000E+00  0.00000000E+00
  0.00000000E+00  0.00000000E+00  0.00000000E+00
  0.00000000E+00  0.00000000E+00  0.00000000E+00
  0.00000000E+00  0.00000000E+00  0.00000000E+00
  0.00000000E+00  0.00000000E+00  0.00000000E+00
  0.00000000E+00  0.00000000E+00  0.00000000E+00
  0.00000000E+00  0.00000000E+00  0.00000000E+00
  0.00000000E+00  0.00000000E+00  0.00000000E+00
  0.00000000E+00  0.00000000E+00  0.00000000E+00
  0.00000000E+00  0.00000000E+00  0.00000000E+00
  0.00000000E+00  0.00000000E+00  0.00000000E+00
  0.00000000E+00  0.00000000E+00  0.00000000E+00
  0.00000000E+00  0.00000000E+00  0.00000000E+00
  0.00000000E+00  0.00000000E+00  0.00000000E+00
  0.00000000E+00  0.00000000E+00  0.00000000E+00
  0.00000000E+00  0.00000000E+00  0.00000000E+00
  0.00000000E+00  0.00000000E+00  0.00000000E+00
  0.00000000E+00  0.00000000E+00  0.00000000E+00
  0.00000000E+00  0.00000000E+00  0.00000000E+00
  0.00000000E+00  0.00000000E+00  0.00000000E+00
  0.00000000E+00  0.00000000E+00  0.00000000E+00
  0.00000000E+00  0.00000000E+00  0.00000000E+00
  0.00000000E+00  0.00000000E+00  0.00000000E+00
  0.00000000E+00  0.00000000E+00  0.00000000E+00
  0.00000000E+00  0.00000000E+00  0.00000000E+00
  0.00000000E+00  0.00000000E+00  0.00000000E+00
  0.00000000E+00  0.00000000E+00  0.00000000E+00
  0.00000000E+00  0.00000000E+00  0.00000000E+00
  0.00000000E+00  0.00000000E+00  0.00000000E+00
  0.00000000E+00  0.00000000E+00  0.00000000E+00
  0.00000000E+00  0.00000000E+00  0.00000000E+00
  0.00000000E+00  0.00000000E+00  0.00000000E+00
  0.00000000E+00  0.00000000E+00  0.00000000E+00
  0.00000000E+00  0.00000000E+00  0.00000000E+00
  0.00000000E+00  0.00000000E+00  0.00000000E+00
  0.00000000E+00  0.00000000E+00  0.00000000E+00
  0.00000000E+00  0.00000000E+00  0.00000000E+00
  0.00000000E+00  0.00000000E+00  0.00000000E+00
  0.00000000E+00  0.00000000E+00  0.00000000E+00
  0.00000000E+00  0.00000000E+00  0.00000000E+00
  0.00000000E+00  0.00000000E+00  0.00000000E+00
  0.00000000E+00  0.00000000E+00  0.00000000E+00
  0.00000000E+00  0.00000000E+00  0.00000000E+00
  0.00000000E+00  0.00000000E+00  0.00000000E+00
  0.00000000E+00  0.00000000E+00  0.00000000E+00
  0.00000000E+00  0.00000000E+00  0.00000000E+00
  0.00000000E+00  0.00000000E+00  0.00000000E+00
  0.00000000E+00  0.00000000E+00  0.00000000E+00
  0.00000000E+00  0.00000000E+00  0.00000000E+00
  0.00000000E+00  0.00000000E+00  0.00000000E+00
  0.00000000E+00  0.00000000E+00  0.00000000E+00
  0.00000000E+00  0.00000000E+00  0.00000000E+00
  0.00000000E+00  0.00000000E+00  0.00000000E+00
  0.00000000E+00  0.00000000E+00  0.00000000E+00
  0.00000000E+00  0.00000000E+00  0.00000000E+00
  0.00000000E+00  0.00000000E+00  0.00000000E+00
  0.00000000E+00  0.00000000E+00  0.00000000E+00
  0.00000000E+00  0.00000000E+00  0.00000000E+00
  0.00000000E+00  0.00000000E+00  0.00000000E+00
  0.00000000E+00  0.00000000E+00  0.00000000E+00
  0.00000000E+00  0.00000000E+00  0.00000000E+00
  0.00000000E+00  0.00000000E+00  0.00000000E+00
  0.00000000E+00  0.00000000E+00  0.00000000E+00
  0.00000000E+00  0.00000000E+00  0.00000000E+00
  0.00000000E+00  0.00000000E+00  0.00000000E+00
  0.00000000E+00  0.00000000E+00  0.00000000E+00
  0.00000000E+00  0.00000000E+00  0.00000000E+00
  0.00000000E+00  0.00000000E+00  0.00000000E+00
  0.00000000E+00  0.00000000E+00  0.00000000E+00
  0.00000000E+00  0.00000000E+00  0.00000000E+00
  0.00000000E+00  0.00000000E+00  0.00000000E+00
  0.00000000E+00  0.00000000E+00  0.00000000E+00
  0.00000000E+00  0.00000000E+00  0.00000000E+00
  0.00000000E+00  0.00000000E+00  0.00000000E+00
  0.00000000E+00  0.00000000E+00  0.00000000E+00
  0.00000000E+00  0.00000000E+00  0.00000000E+00
  0.00000000E+00  0.00000000E+00  0.00000000E+00
  0.00000000E+00  0.00000000E+00  0.00000000E+00
  0.00000000E+00  0.00000000E+00  0.00000000E+00
  0.00000000E+00  0.00000000E+00  0.00000000E+00
  0.00000000E+00  0.00000000E+00  0.00000000E+00
  0.00000000E+00  0.00000000E+00  0.00000000E+00
  0.00000000E+00  0.00000000E+00  0.00000000E+00
  0.00000000E+00  0.00000000E+00  0.00000000E+00
  0.00000000E+00  0.00000000E+00  0.00000000E+00
  0.00000000E+00  0.00000000E+00  0.00000000E+00
  0.00000000E+00  0.00000000E+00  0.00000000E+00
  0.00000000E+00  0.00000000E+00  0.00000000E+00
  0.00000000E+00  0.00000000E+00  0.00000000E+00
  0.00000000E+00  0.00000000E+00  0.00000000E+00
  0.00000000E+00  0.00000000E+00  0.00000000E+00
  0.00000000E+00  0.00000000E+00  0.00000000E+00
  0.00000000E+00  0.00000000E+00  0.00000000E+00
  0.00000000E+00  0.00000000E+00  0.00000000E+00
  0.00000000E+00  0.00000000E+00  0.00000000E+00
  0.00000000E+00  0.00000000E+00  0.00000000E+00
  0.00000000E+00  0.00000000E+00  0.00000000E+00
  0.00000000E+00  0.00000000E+00  0.00000000E+00
  0.00000000E+00  0.00000000E+00  0.00000000E+00
  0.00000000E+00  0.00000000E+00  0.00000000E+00
  0.00000000E+00  0.00000000E+00  0.00000000E+00
  0.00000000E+00  0.00000000E+00  0.00000000E+00
  0.00000000E+00  0.00000000E+00  0.00000000E+00
  0.00000000E+00  0.00000000E+00  0.00000000E+00
  0.00000000E+00  0.00000000E+00  0.00000000E+00
  0.00000000E+00  0.00000000E+00  0.00000000E+00
  0.00000000E+00  0.00000000E+00  0.00000000E+00
  0.00000000E+00  0.00000000E+00  0.00000000E+00
  0.00000000E+00  0.00000000E+00  0.00000000E+00
  0.00000000E+00  0.00000000E+00  0.00000000E+00
  0.00000000E+00  0.00000000E+00  0.00000000E+00
  0.00000000E+00  0.00000000E+00  0.00000000E+00
  0.00000000E+00  0.00000000E+00  0.00000000E+00
  0.00000000E+00  0.00000000E+00  0.00000000E+00
  0.00000000E+00  0.00000000E+00  0.00000000E+00
  0.00000000E+00  0.00000000E+00  0.00000000E+00
  0.00000000E+00  0.00000000E+00  0.00000000E+00
  0.00000000E+00  0.00000000E+00  0.00000000E+00
  0.00000000E+00  0.00000000E+00  0.00000000E+00
  0.00000000E+00  0.00000000E+00  0.00000000E+00
  0.00000000E+00  0.00000000E+00  0.00000000E+00
  0.00000000E+00  0.00000000E+00  0.00000000E+00
  0.00000000E+00  0.00000000E+00  0.00000000E+00
  0.00000000E+00  0.00000000E+00  0.00000000E+00
  0.00000000E+00  0.00000000E+00  0.00000000E+00
  0.00000000E+00  0.00000000E+00  0.00000000E+00
  0.00000000E+00  0.00000000E+00  0.00000000E+00
  0.00000000E+00  0.00000000E+00  0.00000000E+00
  0.00000000E+00  0.00000000E+00  0.00000000E+00
  0.00000000E+00  0.00000000E+00  0.00000000E+00
  0.00000000E+00  0.00000000E+00  0.00000000E+00
  0.00000000E+00  0.00000000E+00  0.00000000E+00
  0.00000000E+00  0.00000000E+00  0.00000000E+00
  0.00000000E+00  0.00000000E+00  0.00000000E+00
  0.00000000E+00  0.00000000E+00  0.00000000E+00
  0.00000000E+00  0.00000000E+00  0.00000000E+00
  0.00000000E+00  0.00000000E+00  0.00000000E+00
  0.00000000E+00  0.00000000E+00  0.00000000E+00
  0.00000000E+00  0.00000000E+00  0.00000000E+00
  0.00000000E+00  0.00000000E+00  0.00000000E+00
  0.00000000E+00  0.00000000E+00  0.00000000E+00
  0.00000000E+00  0.00000000E+00  0.00000000E+00
  0.00000000E+00  0.00000000E+00  0.00000000E+00
  0.00000000E+00  0.00000000E+00  0.00000000E+00
  0.00000000E+00  0.00000000E+00  0.00000000E+00
  0.00000000E+00  0.00000000E+00  0.00000000E+00
  0.00000000E+00  0.00000000E+00  0.00000000E+00
  0.00000000E+00  0.00000000E+00  0.00000000E+00
  0.00000000E+00  0.00000000E+00  0.00000000E+00
  0.00000000E+00  0.00000000E+00  0.00000000E+00
  0.00000000E+00  0.00000000E+00  0.00000000E+00
  0.00000000E+00  0.00000000E+00  0.00000000E+00
  0.00000000E+00  0.00000000E+00  0.00000000E+00
  0.00000000E+00  0.00000000E+00  0.00000000E+00
  0.00000000E+00  0.00000000E+00  0.00000000E+00
  0.00000000E+00  0.00000000E+00  0.00000000E+00
