 H  C Zn  N                             
   1.00000000000000     
    14.2749004363999994    0.0000000000000000    0.0000000000000000
    -4.2364088447999997   13.6317872111000007    0.0000000000000000
    -4.2364088447999997   -5.7528387989000001   12.3584169020000001
   H    C    Zn   N 
    60    84     6    24
Direct
  0.9102000000000032  0.5040999650000018  0.1017000000000010
  0.0897999999999968  0.4959000050000029  0.8982999919999983
  0.1017000000000010  0.9102000000000032  0.5040999650000018
  0.8982999919999983  0.0897999999999968  0.4959000050000029
  0.5040999650000018  0.1017000000000010  0.9102000000000032
  0.4959000050000029  0.8982999919999983  0.0897999999999968
  0.8683999779999994  0.6942999959999980  0.4117000099999970
  0.1316000220000006  0.3057000040000020  0.5882999900000030
  0.4117000099999970  0.8683999779999994  0.6942999959999980
  0.5882999900000030  0.1316000220000006  0.3057000040000020
  0.6942999959999980  0.4117000099999970  0.8683999779999994
  0.3057000040000020  0.5882999900000030  0.1316000220000006
  0.7404999729999986  0.6015999910000005  0.4580000039999987
  0.2595000270000014  0.3984000089999995  0.5419999960000013
  0.4580000039999987  0.7404999729999986  0.6015999910000005
  0.5419999960000013  0.2595000270000014  0.3984000089999995
  0.6015999910000005  0.4580000039999987  0.7404999729999986
  0.3984000089999995  0.5419999960000013  0.2595000270000014
  0.6305000190000030  0.4175000190000020  0.3555000129999968
  0.3694999809999970  0.5824999809999980  0.6445000169999986
  0.3555000129999968  0.6305000190000030  0.4175000190000020
  0.6445000169999986  0.3694999809999970  0.5824999809999980
  0.4175000190000020  0.3555000129999968  0.6305000190000030
  0.5824999809999980  0.6445000169999986  0.3694999809999970
  0.2026000019999969  0.6453000309999979  0.3221000129999965
  0.7973999980000031  0.3546999989999975  0.6778999570000011
  0.3221000129999965  0.2026000019999969  0.6453000309999979
  0.6778999570000011  0.7973999980000031  0.3546999989999975
  0.6453000309999979  0.3221000129999965  0.2026000019999969
  0.3546999989999975  0.6778999570000011  0.7973999980000031
  0.8026000260000004  0.7885000109999964  0.2477000060000023
  0.1973999739999996  0.2115000040000012  0.7523000240000002
  0.2477000060000023  0.8026000260000004  0.7885000109999964
  0.7523000240000002  0.1973999739999996  0.2115000040000012
  0.7885000109999964  0.2477000060000023  0.8026000260000004
  0.2115000040000012  0.7523000240000002  0.1973999739999996
  0.1782000059999973  0.9797999860000033  0.3447000090000003
  0.8217999940000027  0.0201999989999990  0.6553000210000022
  0.3447000090000003  0.1782000059999973  0.9797999860000033
  0.6553000210000022  0.8217999940000027  0.0201999989999990
  0.9797999860000033  0.3447000090000003  0.1782000059999973
  0.0201999989999990  0.6553000210000022  0.8217999940000027
  0.8337000009999969  0.6715999839999967  0.0443000010000034
  0.1662999990000031  0.3283999860000009  0.9556999799999986
  0.0443000010000034  0.8337000009999969  0.6715999839999967
  0.9556999799999986  0.1662999990000031  0.3283999860000009
  0.6715999839999967  0.0443000010000034  0.8337000009999969
  0.3283999860000009  0.9556999799999986  0.1662999990000031
  0.2480000259999997  0.1583999989999967  0.3795000020000003
  0.7519999740000003  0.8416000010000033  0.6204999690000008
  0.3795000020000003  0.2480000259999997  0.1583999989999967
  0.6204999690000008  0.7519999740000003  0.8416000010000033
  0.1583999989999967  0.3795000020000003  0.2480000259999997
  0.8416000010000033  0.6204999690000008  0.7519999740000003
  0.7462999819999965  0.6281000379999995  0.8596000080000010
  0.2537000180000035  0.3718999920000030  0.1404000069999967
  0.8596000080000010  0.7462999819999965  0.6281000379999995
  0.1404000069999967  0.2537000180000035  0.3718999920000030
  0.6281000379999995  0.8596000080000010  0.7462999819999965
  0.3718999920000030  0.1404000069999967  0.2537000180000035
  0.8758000139999993  0.5052999850000006  0.1477999990000001
  0.1241999860000007  0.4947000149999994  0.8522000310000024
  0.1477999990000001  0.8758000139999993  0.5052999850000006
  0.8522000310000024  0.1241999860000007  0.4947000149999994
  0.5052999850000006  0.1477999990000001  0.8758000139999993
  0.4947000149999994  0.8522000310000024  0.1241999860000007
  0.8352000120000014  0.5627999900000020  0.2811999919999977
  0.1647999879999986  0.4372000099999980  0.7188000080000023
  0.2811999919999977  0.8352000120000014  0.5627999900000020
  0.7188000080000023  0.1647999879999986  0.4372000099999980
  0.5627999900000020  0.2811999919999977  0.8352000120000014
  0.4372000099999980  0.7188000080000023  0.1647999879999986
  0.8251000050000030  0.6207000019999995  0.3707999889999982
  0.1748999949999970  0.3792999980000005  0.6291999820000029
  0.3707999889999982  0.8251000050000030  0.6207000019999995
  0.6291999820000029  0.1748999949999970  0.3792999980000005
  0.6207000019999995  0.3707999889999982  0.8251000050000030
  0.3792999980000005  0.6291999820000029  0.1748999949999970
  0.7487000229999978  0.5649000410000014  0.3973999919999969
  0.2512999770000022  0.4350999890000011  0.6025999780000006
  0.3973999919999969  0.7487000229999978  0.5649000410000014
  0.6025999780000006  0.2512999770000022  0.4350999890000011
  0.5649000410000014  0.3973999919999969  0.7487000229999978
  0.4350999890000011  0.6025999780000006  0.2512999770000022
  0.6814000010000001  0.4527000189999981  0.3348000049999982
  0.3185999989999999  0.5472999810000019  0.6651999950000018
  0.3348000049999982  0.6814000010000001  0.4527000189999981
  0.6651999950000018  0.3185999989999999  0.5472999810000019
  0.4527000189999981  0.3348000049999982  0.6814000010000001
  0.5472999810000019  0.6651999950000018  0.3185999989999999
  0.2188999649999985  0.7684999700000006  0.4514000120000006
  0.7811000350000015  0.2314999999999969  0.5485999579999969
  0.4514000120000006  0.2188999649999985  0.7684999700000006
  0.5485999579999969  0.7811000350000015  0.2314999999999969
  0.7684999700000006  0.4514000120000006  0.2188999649999985
  0.2314999999999969  0.5485999579999969  0.7811000350000015
  0.2446999550000015  0.6901000140000022  0.3953999880000012
  0.7553000449999985  0.3098999859999978  0.6046000119999988
  0.3953999880000012  0.2446999550000015  0.6901000140000022
  0.6046000119999988  0.7553000449999985  0.3098999859999978
  0.6901000140000022  0.3953999880000012  0.2446999550000015
  0.3098999859999978  0.6046000119999988  0.7553000449999985
  0.8614000079999968  0.8519999979999966  0.2673000099999996
  0.1385999920000032  0.1480000020000034  0.7326999900000004
  0.2673000099999996  0.8614000079999968  0.8519999979999966
  0.7326999900000004  0.1385999920000032  0.1480000020000034
  0.8519999979999966  0.2673000099999996  0.8614000079999968
  0.1480000020000034  0.7326999900000004  0.1385999920000032
  0.0209000110000019  0.9605000019999963  0.3104000089999985
  0.9790999889999981  0.0395000019999969  0.6895999910000015
  0.3104000089999985  0.0209000110000019  0.9605000019999963
  0.6895999910000015  0.9790999889999981  0.0395000019999969
  0.9605000020000034  0.3104000089999985  0.0209000110000019
  0.0395000019999969  0.6895999910000015  0.9790999889999981
  0.1338000300000033  0.0159000009999986  0.3400999899999988
  0.8661999699999967  0.9840999839999967  0.6599000100000012
  0.3400999899999988  0.1338000300000033  0.0159000009999986
  0.6599000100000012  0.8661999699999967  0.9840999839999967
  0.0159000009999986  0.3400999899999988  0.1338000300000033
  0.9840999839999967  0.6599000100000012  0.8661999699999967
  0.9843000170000025  0.6929000020000018  0.0428000019999999
  0.0156999829999975  0.3070999979999982  0.9571999910000031
  0.0428000019999999  0.9843000170000025  0.6929000020000018
  0.9571999910000031  0.0156999829999975  0.3070999979999982
  0.6929000020000018  0.0428000019999999  0.9843000170000025
  0.3070999979999982  0.9571999910000031  0.0156999829999975
  0.8707000019999995  0.6693999769999976  0.0005000000000024
  0.1292999980000005  0.3305999929999999  0.9994999769999993
  0.0005000000000024  0.8707000019999995  0.6693999769999976
  0.9994999769999993  0.1292999980000005  0.3305999929999999
  0.6693999769999976  0.0005000000000024  0.8707000019999995
  0.3305999929999999  0.9994999769999993  0.1292999980000005
  0.1748000380000008  0.1225000020000024  0.3614000079999968
  0.8251999619999992  0.8774999979999976  0.6385999920000032
  0.3614000079999968  0.1748000380000008  0.1225000020000024
  0.6385999920000032  0.8251999619999992  0.8774999979999976
  0.1225000020000024  0.3614000079999968  0.1748000380000008
  0.8774999979999976  0.6385999920000032  0.8251999619999992
  0.8191999789999969  0.6428999899999965  0.8903999919999990
  0.1808000210000031  0.3571000100000035  0.1096000000000004
  0.8903999919999990  0.8191999789999969  0.6428999899999965
  0.1096000000000004  0.1808000210000031  0.3571000099999964
  0.6428999899999965  0.8903999919999990  0.8191999789999969
  0.3571000100000035  0.1096000000000004  0.1808000210000031
  0.0134999750000020  0.7401700019999993  0.2711299959999991
  0.9865000249999980  0.2598299980000007  0.7288700339999963
  0.2711299959999991  0.0134999750000020  0.7401700019999993
  0.7288700340000034  0.9865000249999980  0.2598299980000007
  0.7401700019999993  0.2711299959999991  0.0134999750000020
  0.2598299980000007  0.7288700339999963  0.9865000249999980
  0.9021999839999992  0.5957000260000029  0.2319999930000023
  0.0978000160000008  0.4043000039999995  0.7680000069999977
  0.2319999930000023  0.9021999839999992  0.5957000260000029
  0.7680000069999977  0.0978000160000008  0.4043000039999995
  0.5957000260000029  0.2319999930000023  0.9021999839999992
  0.4043000039999995  0.7680000069999977  0.0978000160000008
  0.0571999550000015  0.7215999960000019  0.1488000009999979
  0.9428000449999985  0.2784000039999981  0.8511999850000009
  0.1488000009999979  0.0571999550000015  0.7215999960000019
  0.8511999850000009  0.9428000449999985  0.2784000039999981
  0.7215999960000019  0.1488000009999979  0.0571999550000015
  0.2784000039999981  0.8511999850000009  0.9428000449999985
  0.1332999469999976  0.7964000110000029  0.4158000050000012
  0.8667000530000024  0.2036000040000019  0.5842000250000012
  0.4158000050000012  0.1332999469999976  0.7964000110000029
  0.5842000250000012  0.8667000530000024  0.2036000040000019
  0.7964000110000029  0.4158000050000012  0.1332999469999976
  0.2036000040000019  0.5842000250000012  0.8667000530000024
  0.9584000110000019  0.8549000020000008  0.2849999960000034
  0.0415999889999981  0.1450999979999992  0.7150000330000026
  0.2849999960000034  0.9584000110000019  0.8549000020000008
  0.7150000330000026  0.0415999889999981  0.1450999979999992
  0.8549000020000008  0.2849999959999963  0.9584000110000019
  0.1450999979999992  0.7150000330000026  0.0415999889999981
 
  0.00000000E+00  0.00000000E+00  0.00000000E+00
  0.00000000E+00  0.00000000E+00  0.00000000E+00
  0.00000000E+00  0.00000000E+00  0.00000000E+00
  0.00000000E+00  0.00000000E+00  0.00000000E+00
  0.00000000E+00  0.00000000E+00  0.00000000E+00
  0.00000000E+00  0.00000000E+00  0.00000000E+00
  0.00000000E+00  0.00000000E+00  0.00000000E+00
  0.00000000E+00  0.00000000E+00  0.00000000E+00
  0.00000000E+00  0.00000000E+00  0.00000000E+00
  0.00000000E+00  0.00000000E+00  0.00000000E+00
  0.00000000E+00  0.00000000E+00  0.00000000E+00
  0.00000000E+00  0.00000000E+00  0.00000000E+00
  0.00000000E+00  0.00000000E+00  0.00000000E+00
  0.00000000E+00  0.00000000E+00  0.00000000E+00
  0.00000000E+00  0.00000000E+00  0.00000000E+00
  0.00000000E+00  0.00000000E+00  0.00000000E+00
  0.00000000E+00  0.00000000E+00  0.00000000E+00
  0.00000000E+00  0.00000000E+00  0.00000000E+00
  0.00000000E+00  0.00000000E+00  0.00000000E+00
  0.00000000E+00  0.00000000E+00  0.00000000E+00
  0.00000000E+00  0.00000000E+00  0.00000000E+00
  0.00000000E+00  0.00000000E+00  0.00000000E+00
  0.00000000E+00  0.00000000E+00  0.00000000E+00
  0.00000000E+00  0.00000000E+00  0.00000000E+00
  0.00000000E+00  0.00000000E+00  0.00000000E+00
  0.00000000E+00  0.00000000E+00  0.00000000E+00
  0.00000000E+00  0.00000000E+00  0.00000000E+00
  0.00000000E+00  0.00000000E+00  0.00000000E+00
  0.00000000E+00  0.00000000E+00  0.00000000E+00
  0.00000000E+00  0.00000000E+00  0.00000000E+00
  0.00000000E+00  0.00000000E+00  0.00000000E+00
  0.00000000E+00  0.00000000E+00  0.00000000E+00
  0.00000000E+00  0.00000000E+00  0.00000000E+00
  0.00000000E+00  0.00000000E+00  0.00000000E+00
  0.00000000E+00  0.00000000E+00  0.00000000E+00
  0.00000000E+00  0.00000000E+00  0.00000000E+00
  0.00000000E+00  0.00000000E+00  0.00000000E+00
  0.00000000E+00  0.00000000E+00  0.00000000E+00
  0.00000000E+00  0.00000000E+00  0.00000000E+00
  0.00000000E+00  0.00000000E+00  0.00000000E+00
  0.00000000E+00  0.00000000E+00  0.00000000E+00
  0.00000000E+00  0.00000000E+00  0.00000000E+00
  0.00000000E+00  0.00000000E+00  0.00000000E+00
  0.00000000E+00  0.00000000E+00  0.00000000E+00
  0.00000000E+00  0.00000000E+00  0.00000000E+00
  0.00000000E+00  0.00000000E+00  0.00000000E+00
  0.00000000E+00  0.00000000E+00  0.00000000E+00
  0.00000000E+00  0.00000000E+00  0.00000000E+00
  0.00000000E+00  0.00000000E+00  0.00000000E+00
  0.00000000E+00  0.00000000E+00  0.00000000E+00
  0.00000000E+00  0.00000000E+00  0.00000000E+00
  0.00000000E+00  0.00000000E+00  0.00000000E+00
  0.00000000E+00  0.00000000E+00  0.00000000E+00
  0.00000000E+00  0.00000000E+00  0.00000000E+00
  0.00000000E+00  0.00000000E+00  0.00000000E+00
  0.00000000E+00  0.00000000E+00  0.00000000E+00
  0.00000000E+00  0.00000000E+00  0.00000000E+00
  0.00000000E+00  0.00000000E+00  0.00000000E+00
  0.00000000E+00  0.00000000E+00  0.00000000E+00
  0.00000000E+00  0.00000000E+00  0.00000000E+00
  0.00000000E+00  0.00000000E+00  0.00000000E+00
  0.00000000E+00  0.00000000E+00  0.00000000E+00
  0.00000000E+00  0.00000000E+00  0.00000000E+00
  0.00000000E+00  0.00000000E+00  0.00000000E+00
  0.00000000E+00  0.00000000E+00  0.00000000E+00
  0.00000000E+00  0.00000000E+00  0.00000000E+00
  0.00000000E+00  0.00000000E+00  0.00000000E+00
  0.00000000E+00  0.00000000E+00  0.00000000E+00
  0.00000000E+00  0.00000000E+00  0.00000000E+00
  0.00000000E+00  0.00000000E+00  0.00000000E+00
  0.00000000E+00  0.00000000E+00  0.00000000E+00
  0.00000000E+00  0.00000000E+00  0.00000000E+00
  0.00000000E+00  0.00000000E+00  0.00000000E+00
  0.00000000E+00  0.00000000E+00  0.00000000E+00
  0.00000000E+00  0.00000000E+00  0.00000000E+00
  0.00000000E+00  0.00000000E+00  0.00000000E+00
  0.00000000E+00  0.00000000E+00  0.00000000E+00
  0.00000000E+00  0.00000000E+00  0.00000000E+00
  0.00000000E+00  0.00000000E+00  0.00000000E+00
  0.00000000E+00  0.00000000E+00  0.00000000E+00
  0.00000000E+00  0.00000000E+00  0.00000000E+00
  0.00000000E+00  0.00000000E+00  0.00000000E+00
  0.00000000E+00  0.00000000E+00  0.00000000E+00
  0.00000000E+00  0.00000000E+00  0.00000000E+00
  0.00000000E+00  0.00000000E+00  0.00000000E+00
  0.00000000E+00  0.00000000E+00  0.00000000E+00
  0.00000000E+00  0.00000000E+00  0.00000000E+00
  0.00000000E+00  0.00000000E+00  0.00000000E+00
  0.00000000E+00  0.00000000E+00  0.00000000E+00
  0.00000000E+00  0.00000000E+00  0.00000000E+00
  0.00000000E+00  0.00000000E+00  0.00000000E+00
  0.00000000E+00  0.00000000E+00  0.00000000E+00
  0.00000000E+00  0.00000000E+00  0.00000000E+00
  0.00000000E+00  0.00000000E+00  0.00000000E+00
  0.00000000E+00  0.00000000E+00  0.00000000E+00
  0.00000000E+00  0.00000000E+00  0.00000000E+00
  0.00000000E+00  0.00000000E+00  0.00000000E+00
  0.00000000E+00  0.00000000E+00  0.00000000E+00
  0.00000000E+00  0.00000000E+00  0.00000000E+00
  0.00000000E+00  0.00000000E+00  0.00000000E+00
  0.00000000E+00  0.00000000E+00  0.00000000E+00
  0.00000000E+00  0.00000000E+00  0.00000000E+00
  0.00000000E+00  0.00000000E+00  0.00000000E+00
  0.00000000E+00  0.00000000E+00  0.00000000E+00
  0.00000000E+00  0.00000000E+00  0.00000000E+00
  0.00000000E+00  0.00000000E+00  0.00000000E+00
  0.00000000E+00  0.00000000E+00  0.00000000E+00
  0.00000000E+00  0.00000000E+00  0.00000000E+00
  0.00000000E+00  0.00000000E+00  0.00000000E+00
  0.00000000E+00  0.00000000E+00  0.00000000E+00
  0.00000000E+00  0.00000000E+00  0.00000000E+00
  0.00000000E+00  0.00000000E+00  0.00000000E+00
  0.00000000E+00  0.00000000E+00  0.00000000E+00
  0.00000000E+00  0.00000000E+00  0.00000000E+00
  0.00000000E+00  0.00000000E+00  0.00000000E+00
  0.00000000E+00  0.00000000E+00  0.00000000E+00
  0.00000000E+00  0.00000000E+00  0.00000000E+00
  0.00000000E+00  0.00000000E+00  0.00000000E+00
  0.00000000E+00  0.00000000E+00  0.00000000E+00
  0.00000000E+00  0.00000000E+00  0.00000000E+00
  0.00000000E+00  0.00000000E+00  0.00000000E+00
  0.00000000E+00  0.00000000E+00  0.00000000E+00
  0.00000000E+00  0.00000000E+00  0.00000000E+00
  0.00000000E+00  0.00000000E+00  0.00000000E+00
  0.00000000E+00  0.00000000E+00  0.00000000E+00
  0.00000000E+00  0.00000000E+00  0.00000000E+00
  0.00000000E+00  0.00000000E+00  0.00000000E+00
  0.00000000E+00  0.00000000E+00  0.00000000E+00
  0.00000000E+00  0.00000000E+00  0.00000000E+00
  0.00000000E+00  0.00000000E+00  0.00000000E+00
  0.00000000E+00  0.00000000E+00  0.00000000E+00
  0.00000000E+00  0.00000000E+00  0.00000000E+00
  0.00000000E+00  0.00000000E+00  0.00000000E+00
  0.00000000E+00  0.00000000E+00  0.00000000E+00
  0.00000000E+00  0.00000000E+00  0.00000000E+00
  0.00000000E+00  0.00000000E+00  0.00000000E+00
  0.00000000E+00  0.00000000E+00  0.00000000E+00
  0.00000000E+00  0.00000000E+00  0.00000000E+00
  0.00000000E+00  0.00000000E+00  0.00000000E+00
  0.00000000E+00  0.00000000E+00  0.00000000E+00
  0.00000000E+00  0.00000000E+00  0.00000000E+00
  0.00000000E+00  0.00000000E+00  0.00000000E+00
  0.00000000E+00  0.00000000E+00  0.00000000E+00
  0.00000000E+00  0.00000000E+00  0.00000000E+00
  0.00000000E+00  0.00000000E+00  0.00000000E+00
  0.00000000E+00  0.00000000E+00  0.00000000E+00
  0.00000000E+00  0.00000000E+00  0.00000000E+00
  0.00000000E+00  0.00000000E+00  0.00000000E+00
  0.00000000E+00  0.00000000E+00  0.00000000E+00
  0.00000000E+00  0.00000000E+00  0.00000000E+00
  0.00000000E+00  0.00000000E+00  0.00000000E+00
  0.00000000E+00  0.00000000E+00  0.00000000E+00
  0.00000000E+00  0.00000000E+00  0.00000000E+00
  0.00000000E+00  0.00000000E+00  0.00000000E+00
  0.00000000E+00  0.00000000E+00  0.00000000E+00
  0.00000000E+00  0.00000000E+00  0.00000000E+00
  0.00000000E+00  0.00000000E+00  0.00000000E+00
  0.00000000E+00  0.00000000E+00  0.00000000E+00
  0.00000000E+00  0.00000000E+00  0.00000000E+00
  0.00000000E+00  0.00000000E+00  0.00000000E+00
  0.00000000E+00  0.00000000E+00  0.00000000E+00
  0.00000000E+00  0.00000000E+00  0.00000000E+00
  0.00000000E+00  0.00000000E+00  0.00000000E+00
  0.00000000E+00  0.00000000E+00  0.00000000E+00
  0.00000000E+00  0.00000000E+00  0.00000000E+00
  0.00000000E+00  0.00000000E+00  0.00000000E+00
  0.00000000E+00  0.00000000E+00  0.00000000E+00
  0.00000000E+00  0.00000000E+00  0.00000000E+00
  0.00000000E+00  0.00000000E+00  0.00000000E+00
  0.00000000E+00  0.00000000E+00  0.00000000E+00
  0.00000000E+00  0.00000000E+00  0.00000000E+00
  0.00000000E+00  0.00000000E+00  0.00000000E+00
  0.00000000E+00  0.00000000E+00  0.00000000E+00
  0.00000000E+00  0.00000000E+00  0.00000000E+00
